[TITLE]
;; Schweinfurt reduced synthetic sewer; see METHODOLOGY.md

[OPTIONS]
FLOW_UNITS           CMS
INFILTRATION         HORTON
FLOW_ROUTING         DYNWAVE
FORCE_MAIN_EQUATION  H-W
START_DATE           07/01/2026
START_TIME           00:00:00
REPORT_START_DATE    07/01/2026
REPORT_START_TIME    00:00:00
END_DATE             07/01/2026
END_TIME             24:00:00
ROUTING_STEP         00:00:30
VARIABLE_STEP        0.75
MINIMUM_STEP         0.1
MAX_TRIALS           100
HEAD_TOLERANCE       0.005
SURCHARGE_METHOD     SLOT

[JUNCTIONS]
;;Name Elevation MaxDepth InitDepth SurDepth Aponded
SJ0001 206.850 8.000 0 0 0
SJ0002 205.719 6.891 0 0 0
SJ0003 216.000 8.000 0 0 0
SJ0004 214.750 8.000 0 0 0
SJ0005 232.760 8.000 0 0 0
SJ0006 232.400 8.000 0 0 0
SJ0007 221.940 8.000 0 0 0
SJ0008 221.080 8.000 0 0 0
SJ0009 213.840 8.000 0 0 0
SJ0010 213.450 8.000 0 0 0
SJ0011 220.350 8.000 0 0 0
SJ0012 205.620 3.040 0 0 0
SJ0013 205.613 3.087 0 0 0
SJ0014 222.360 8.000 0 0 0
SJ0015 221.840 8.000 0 0 0
SJ0016 205.771 2.899 0 0 0
SJ0017 205.738 2.902 0 0 0
SJ0018 224.280 8.000 0 0 0
SJ0019 219.480 8.000 0 0 0
SJ0020 237.500 8.000 0 0 0
SJ0021 235.030 8.000 0 0 0
SJ0022 216.330 8.000 0 0 0
SJ0023 214.110 8.000 0 0 0
SJ0024 206.587 7.013 0 0 0
SJ0025 206.560 7.600 0 0 0
SJ0026 227.620 8.000 0 0 0
SJ0027 226.600 8.000 0 0 0
SJ0028 205.544 3.546 0 0 0
SJ0029 205.522 3.378 0 0 0
SJ0030 222.300 8.000 0 0 0
SJ0031 221.740 8.000 0 0 0
SJ0032 206.245 2.000 0 0 0
SJ0033 206.219 2.000 0 0 0
SJ0034 205.707 6.253 0 0 0
SJ0035 205.676 4.894 0 0 0
SJ0036 219.093 7.607 0 0 0
SJ0037 219.060 8.000 0 0 0
SJ0038 209.180 8.000 0 0 0
SJ0039 206.860 8.000 0 0 0
SJ0040 205.574 2.416 0 0 0
SJ0041 205.506 2.024 0 0 0
SJ0042 211.870 8.000 0 0 0
SJ0043 211.060 8.000 0 0 0
SJ0044 222.140 8.000 0 0 0
SJ0045 219.190 8.000 0 0 0
SJ0046 227.130 8.000 0 0 0
SJ0047 226.380 8.000 0 0 0
SJ0048 226.654 7.906 0 0 0
SJ0049 226.640 8.000 0 0 0
SJ0050 205.603 3.307 0 0 0
SJ0051 205.585 4.005 0 0 0
SJ0052 205.807 3.173 0 0 0
SJ0053 205.794 3.836 0 0 0
SJ0054 235.160 8.000 0 0 0
SJ0055 234.470 8.000 0 0 0
SJ0056 228.300 8.000 0 0 0
SJ0057 226.730 8.000 0 0 0
SJ0058 206.549 7.861 0 0 0
SJ0059 206.547 7.883 0 0 0
SJ0060 215.059 7.891 0 0 0
SJ0061 215.040 8.000 0 0 0
SJ0062 205.661 6.099 0 0 0
SJ0063 205.645 5.945 0 0 0
SJ0064 206.601 6.699 0 0 0
SJ0065 225.020 8.000 0 0 0
SJ0066 224.270 8.000 0 0 0
SJ0067 220.325 6.955 0 0 0
SJ0068 220.316 7.294 0 0 0
SJ0069 218.800 8.000 0 0 0
SJ0070 216.730 8.000 0 0 0
SJ0071 205.617 2.913 0 0 0
SJ0072 205.600 2.800 0 0 0
SJ0073 226.472 7.928 0 0 0
SJ0074 226.460 8.000 0 0 0
SJ0075 205.576 5.474 0 0 0
SJ0076 205.562 5.228 0 0 0
SJ0077 233.130 8.000 0 0 0
SJ0078 232.610 8.000 0 0 0
SJ0079 209.790 8.000 0 0 0
SJ0080 209.200 8.000 0 0 0
SJ0081 207.890 8.000 0 0 0
SJ0082 207.590 8.000 0 0 0
SJ0083 212.620 8.000 0 0 0
SJ0084 211.190 8.000 0 0 0
SJ0085 220.894 2.796 0 0 0
SJ0086 220.865 2.465 0 0 0
SJ0087 208.740 8.000 0 0 0
SJ0088 208.690 8.000 0 0 0
SJ0089 246.356 7.964 0 0 0
SJ0090 246.340 8.000 0 0 0
SJ0091 205.578 2.000 0 0 0
SJ0092 205.548 2.172 0 0 0
SJ0093 212.600 8.000 0 0 0
SJ0094 211.930 8.000 0 0 0
SJ0095 205.657 3.783 0 0 0
SJ0096 205.621 4.899 0 0 0
SJ0097 206.240 8.000 0 0 0
SJ0098 205.659 6.831 0 0 0
SJ0099 206.761 7.909 0 0 0
SJ0100 206.750 8.000 0 0 0
SJ0101 212.230 8.000 0 0 0
SJ0102 212.130 8.000 0 0 0
SJ0103 226.608 7.592 0 0 0
SJ0104 205.403 2.000 0 0 0
SJ0105 205.377 2.073 0 0 0
SJ0106 226.391 7.769 0 0 0
SJ0107 205.482 3.678 0 0 0
SJ0108 205.445 2.775 0 0 0
SJ0109 226.610 8.000 0 0 0
SJ0110 241.060 8.000 0 0 0
SJ0111 239.390 8.000 0 0 0
SJ0112 235.890 8.000 0 0 0
SJ0113 234.810 8.000 0 0 0
SJ0114 236.090 8.000 0 0 0
SJ0115 234.870 8.000 0 0 0
SJ0116 213.220 8.000 0 0 0
SJ0117 212.590 8.000 0 0 0
SJ0118 236.480 7.840 0 0 0
SJ0119 236.470 8.000 0 0 0
SJ0120 211.820 8.000 0 0 0
SJ0121 211.260 8.000 0 0 0
SJ0122 205.613 4.827 0 0 0
SJ0123 205.598 5.222 0 0 0
SJ0124 221.060 7.050 0 0 0
SJ0125 221.047 6.893 0 0 0
SJ0126 216.850 8.000 0 0 0
SJ0127 209.850 8.000 0 0 0
SJ0128 215.450 8.000 0 0 0
SJ0129 213.140 8.000 0 0 0
SJ0130 208.316 7.904 0 0 0
SJ0131 208.314 7.866 0 0 0
SJ0132 213.690 8.000 0 0 0
SJ0133 212.560 8.000 0 0 0
SJ0134 206.801 7.979 0 0 0
SJ0135 206.794 7.986 0 0 0
SJ0136 248.630 8.000 0 0 0
SJ0137 245.110 8.000 0 0 0
SJ0138 205.612 7.748 0 0 0
SJ0139 205.588 6.812 0 0 0
SJ0140 216.830 8.000 0 0 0
SJ0141 215.990 8.000 0 0 0
SJ0142 219.217 7.903 0 0 0
SJ0143 219.210 8.000 0 0 0
SJ0144 238.120 8.000 0 0 0
SJ0145 236.490 8.000 0 0 0
SJ0146 221.124 3.496 0 0 0
SJ0147 220.910 8.000 0 0 0
SJ0148 205.756 7.974 0 0 0
SJ0149 221.380 8.000 0 0 0
SJ0150 221.310 8.000 0 0 0
SJ0151 205.853 4.917 0 0 0
SJ0152 211.520 8.000 0 0 0
SJ0153 208.910 8.000 0 0 0
SJ0154 208.640 8.000 0 0 0
SJ0155 208.710 8.000 0 0 0
SJ0156 208.290 8.000 0 0 0
SJ0157 239.208 7.482 0 0 0
SJ0158 239.190 8.000 0 0 0
SJ0159 217.150 8.000 0 0 0
SJ0160 216.020 8.000 0 0 0
SJ0161 216.632 6.168 0 0 0
SJ0162 216.598 7.642 0 0 0
SJ0163 217.056 6.574 0 0 0
SJ0164 217.011 7.079 0 0 0
SJ0165 206.337 2.993 0 0 0
SJ0166 206.278 3.072 0 0 0
SJ0167 211.558 7.932 0 0 0
SJ0168 211.520 8.000 0 0 0
SJ0169 205.467 2.233 0 0 0
SJ0170 205.454 2.016 0 0 0
SJ0171 210.141 7.599 0 0 0
SJ0172 210.100 8.000 0 0 0
SJ0173 205.360 2.780 0 0 0
SJ0174 205.347 2.903 0 0 0
SJ0175 206.010 8.000 0 0 0
SJ0176 205.674 7.666 0 0 0
SJ0177 210.890 8.000 0 0 0
SJ0178 210.170 8.000 0 0 0
SJ0179 231.430 8.000 0 0 0
SJ0180 230.010 8.000 0 0 0
SJ0181 221.038 6.502 0 0 0
SJ0182 221.027 6.423 0 0 0
SJ0183 205.548 4.872 0 0 0
SJ0184 205.515 4.375 0 0 0
SJ0185 205.588 5.732 0 0 0
SJ0186 205.570 5.350 0 0 0
SJ0187 219.895 7.075 0 0 0
SJ0188 219.891 7.149 0 0 0
SJ0189 216.280 8.000 0 0 0
SJ0190 205.476 2.554 0 0 0
SJ0191 221.072 7.478 0 0 0
SJ0192 226.710 8.000 0 0 0
SJ0193 225.944 7.996 0 0 0
SJ0194 206.801 7.639 0 0 0
SJ0195 220.660 8.000 0 0 0
SJ0196 219.840 8.000 0 0 0
SJ0197 205.575 2.855 0 0 0
SJ0198 205.472 2.848 0 0 0
SJ0199 229.810 8.000 0 0 0
SJ0200 229.700 8.000 0 0 0
SJ0201 211.610 8.000 0 0 0
SJ0202 210.840 8.000 0 0 0
SJ0203 209.680 8.000 0 0 0
SJ0204 208.830 8.000 0 0 0
SJ0205 205.494 4.916 0 0 0
SJ0206 205.470 4.510 0 0 0
SJ0207 221.340 8.000 0 0 0
SJ0208 220.360 8.000 0 0 0
SJ0209 205.627 4.223 0 0 0
SJ0210 205.617 2.663 0 0 0
SJ0211 205.583 2.407 0 0 0
SJ0212 225.011 7.199 0 0 0
SJ0213 225.000 7.650 0 0 0
SJ0214 205.520 5.430 0 0 0
SJ0215 205.512 5.288 0 0 0
SJ0216 205.920 8.000 0 0 0
SJ0217 205.890 8.000 0 0 0
SJ0218 225.550 8.000 0 0 0
SJ0219 223.490 8.000 0 0 0
SJ0220 238.390 8.000 0 0 0
SJ0221 237.110 8.000 0 0 0
SJ0222 232.120 8.000 0 0 0
SJ0223 231.800 8.000 0 0 0
SJ0224 219.780 8.000 0 0 0
SJ0225 219.640 8.000 0 0 0
SJ0226 233.494 7.696 0 0 0
SJ0227 233.474 6.706 0 0 0
SJ0228 224.540 8.000 0 0 0
SJ0229 223.610 8.000 0 0 0
SJ0230 220.730 8.000 0 0 0
SJ0231 220.590 8.000 0 0 0
SJ0232 223.230 8.000 0 0 0
SJ0233 216.440 8.000 0 0 0
SJ0234 214.300 8.000 0 0 0
SJ0235 218.368 6.632 0 0 0
SJ0236 218.331 7.289 0 0 0
SJ0237 218.475 7.825 0 0 0
SJ0238 218.440 8.000 0 0 0
SJ0239 209.280 8.000 0 0 0
SJ0240 209.238 7.922 0 0 0
SJ0241 211.708 2.232 0 0 0
SJ0243 242.580 8.000 0 0 0
SJ0244 241.250 8.000 0 0 0
SJ0245 225.590 8.000 0 0 0
SJ0246 225.310 8.000 0 0 0
SJ0247 208.384 6.976 0 0 0
SJ0248 208.380 7.060 0 0 0
SJ0249 205.662 5.118 0 0 0
SJ0250 205.660 5.040 0 0 0
SJ0251 205.397 3.933 0 0 0
SJ0252 205.351 2.969 0 0 0
SJ0253 210.403 7.957 0 0 0
SJ0254 210.400 8.000 0 0 0
SJ0255 208.900 8.000 0 0 0
SJ0256 208.302 7.628 0 0 0
SJ0257 213.530 8.000 0 0 0
SJ0258 213.550 8.000 0 0 0
SJ0259 209.430 8.000 0 0 0
SJ0260 209.370 8.000 0 0 0
SJ0261 220.627 6.433 0 0 0
SJ0262 220.570 8.000 0 0 0
SJ0263 207.548 7.902 0 0 0
SJ0264 207.470 8.000 0 0 0
SJ0265 223.530 8.000 0 0 0
SJ0266 236.750 8.000 0 0 0
SJ0267 235.430 8.000 0 0 0
SJ0268 205.711 7.419 0 0 0
SJ0269 205.687 6.183 0 0 0
SJ0270 208.740 8.000 0 0 0
SJ0271 208.580 8.000 0 0 0
SJ0272 226.410 8.000 0 0 0
SJ0273 225.130 8.000 0 0 0
SJ0274 206.827 7.893 0 0 0
SJ0275 206.800 8.000 0 0 0
SJ0276 226.670 8.000 0 0 0
SJ0277 205.516 2.424 0 0 0
SJ0278 220.180 8.000 0 0 0
SJ0279 219.620 8.000 0 0 0
SJ0280 219.870 8.000 0 0 0
SJ0281 205.607 2.033 0 0 0
SJ0282 205.589 2.041 0 0 0
SJ0283 229.400 8.000 0 0 0
SJ0284 229.250 8.000 0 0 0
SJ0285 210.841 6.469 0 0 0
SJ0286 210.835 6.275 0 0 0
SJ0287 211.804 2.000 0 0 0
SJ0288 211.674 3.146 0 0 0
SJ0289 226.760 8.000 0 0 0
SJ0290 225.660 8.000 0 0 0
SJ0291 206.850 8.000 0 0 0
SJ0292 206.540 8.000 0 0 0
SJ0293 239.204 7.296 0 0 0
SJ0294 205.600 7.020 0 0 0
SJ0295 215.090 8.000 0 0 0
SJ0296 214.390 8.000 0 0 0
SJ0297 222.064 7.886 0 0 0
SJ0298 222.060 8.000 0 0 0
SJ0299 227.640 8.000 0 0 0
SJ0300 227.530 8.000 0 0 0
SJ0301 230.080 8.000 0 0 0
SJ0302 220.300 8.000 0 0 0
SJ0303 207.678 6.992 0 0 0
SJ0304 207.649 6.931 0 0 0
SJ0305 209.570 8.000 0 0 0
SJ0306 209.130 8.000 0 0 0
SJ0307 221.640 8.000 0 0 0
SJ0308 254.230 8.000 0 0 0
SJ0309 253.580 8.000 0 0 0
SJ0310 239.230 7.680 0 0 0
SJ0311 205.550 2.710 0 0 0
SJ0312 205.530 2.980 0 0 0
SJ0313 209.000 8.000 0 0 0
SJ0314 205.508 2.052 0 0 0
SJ0316 227.830 8.000 0 0 0
SJ0317 225.700 8.000 0 0 0
SJ0318 217.440 8.000 0 0 0
SJ0319 217.200 8.000 0 0 0
SJ0320 226.870 8.000 0 0 0
SJ0322 206.111 2.000 0 0 0
SJ0323 222.540 8.000 0 0 0
SJ0324 221.110 7.700 0 0 0
SJ0325 216.250 8.000 0 0 0
SJ0326 215.710 8.000 0 0 0
SJ0327 209.850 8.000 0 0 0
SJ0328 207.850 8.000 0 0 0
SJ0329 206.750 8.000 0 0 0
SJ0330 225.300 8.000 0 0 0
SJ0331 224.966 7.674 0 0 0
SJ0332 209.437 7.953 0 0 0
SJ0333 205.611 7.249 0 0 0
SJ0334 205.461 4.389 0 0 0
SJ0335 205.639 5.931 0 0 0
SJ0336 220.460 8.000 0 0 0
SJ0338 224.060 8.000 0 0 0
SJ0339 222.760 8.000 0 0 0
SJ0340 250.420 8.000 0 0 0
SJ0341 249.110 8.000 0 0 0
SJ0342 205.645 6.995 0 0 0
SJ0343 205.576 5.494 0 0 0
SJ0345 206.158 2.000 0 0 0
SJ0346 207.535 7.245 0 0 0
SJ0347 207.530 7.380 0 0 0
SJ0348 218.840 8.000 0 0 0
SJ0349 232.230 8.000 0 0 0
SJ0350 229.830 8.000 0 0 0
SJ0351 206.198 2.000 0 0 0
SJ0353 209.186 7.934 0 0 0
SJ0354 233.420 8.000 0 0 0
SJ0355 220.970 2.150 0 0 0
SJ0356 226.470 8.000 0 0 0
SJ0357 226.360 8.000 0 0 0
SJ0358 216.960 8.000 0 0 0
SJ0359 205.552 5.388 0 0 0
SJ0360 205.538 4.822 0 0 0
SJ0361 218.300 8.000 0 0 0
SJ0362 217.880 8.000 0 0 0
SJ0363 216.030 8.000 0 0 0
SJ0364 205.019 2.611 0 0 0
SJ0365 205.007 2.463 0 0 0
SJ0366 229.610 8.000 0 0 0
SJ0367 228.120 8.000 0 0 0
SJ0368 211.886 7.544 0 0 0
SJ0369 211.883 7.687 0 0 0
SJ0370 210.823 6.277 0 0 0
SJ0371 210.799 5.581 0 0 0
SJ0372 216.930 8.000 0 0 0
SJ0373 216.680 8.000 0 0 0
SJ0374 205.584 2.436 0 0 0
SJ0375 210.443 2.000 0 0 0
SJ0377 236.250 8.000 0 0 0
SJ0378 232.840 8.000 0 0 0
SJ0379 205.588 5.242 0 0 0
SJ0380 242.020 8.000 0 0 0
SJ0381 241.090 8.000 0 0 0
SJ0382 207.660 8.000 0 0 0
SJ0383 207.530 8.000 0 0 0
SJ0384 207.630 7.070 0 0 0
SJ0385 236.860 8.000 0 0 0
SJ0386 224.750 8.000 0 0 0
SJ0387 223.410 8.000 0 0 0
SJ0388 207.210 8.000 0 0 0
SJ0389 206.410 8.000 0 0 0
SJ0390 222.850 8.000 0 0 0
SJ0391 221.310 8.000 0 0 0
SJ0392 210.732 3.768 0 0 0
SJ0393 210.710 3.230 0 0 0
SJ0394 231.930 8.000 0 0 0
SJ0395 206.460 8.000 0 0 0
SJ0396 206.337 5.993 0 0 0
SJ0397 240.850 8.000 0 0 0
SJ0398 205.456 2.514 0 0 0
SJ0399 205.417 2.943 0 0 0
SJ0400 219.080 8.000 0 0 0
SJ0401 217.750 8.000 0 0 0
SJ0402 219.890 8.000 0 0 0
SJ0403 215.740 8.000 0 0 0
SJ0404 240.920 6.320 0 0 0
SJ0405 240.898 6.402 0 0 0
SJ0406 209.760 8.000 0 0 0
SJ0407 209.020 8.000 0 0 0
SJ0408 205.620 4.800 0 0 0
SJ0409 205.566 3.074 0 0 0
SJ0410 205.520 3.420 0 0 0
SJ0411 205.615 5.485 0 0 0
SJ0412 226.670 8.000 0 0 0
SJ0413 205.440 2.380 0 0 0
SJ0414 205.414 2.766 0 0 0
SJ0415 208.339 7.311 0 0 0
SJ0416 208.298 7.542 0 0 0
SJ0417 209.140 8.000 0 0 0
SJ0418 208.860 8.000 0 0 0
SJ0419 226.638 6.612 0 0 0
SJ0420 205.409 2.501 0 0 0
SJ0421 205.399 2.411 0 0 0
SJ0422 230.720 8.000 0 0 0
SJ0423 230.100 8.000 0 0 0
SJ0424 226.010 8.000 0 0 0
SJ0425 224.650 8.000 0 0 0
SJ0426 210.745 4.115 0 0 0
SJ0427 210.660 2.000 0 0 0
SJ0428 210.652 2.018 0 0 0
SJ0429 221.630 8.000 0 0 0
SJ0430 220.978 7.332 0 0 0
SJ0431 212.700 8.000 0 0 0
SJ0432 210.779 5.021 0 0 0
SJ0433 209.155 7.985 0 0 0
SJ0434 231.462 7.418 0 0 0
SJ0435 231.453 7.887 0 0 0
SJ0436 232.970 8.000 0 0 0
SJ0437 250.425 7.975 0 0 0
SJ0438 214.090 8.000 0 0 0
SJ0439 212.880 8.000 0 0 0
SJ0440 208.950 8.000 0 0 0
SJ0441 208.920 8.000 0 0 0
SJ0442 226.330 8.000 0 0 0
SJ0443 225.620 8.000 0 0 0
SJ0444 221.900 8.000 0 0 0
SJ0445 219.720 8.000 0 0 0
SJ0446 209.309 7.831 0 0 0
SJ0447 209.296 7.584 0 0 0
SJ0448 205.462 3.418 0 0 0
SJ0449 205.435 3.115 0 0 0
SJ0450 215.670 8.000 0 0 0
SJ0451 215.420 8.000 0 0 0
SJ0452 205.594 2.126 0 0 0
SJ0453 205.583 2.047 0 0 0
SJ0454 206.603 6.787 0 0 0
SJ0455 206.594 6.986 0 0 0
SJ0456 223.680 8.000 0 0 0
SJ0457 221.088 7.802 0 0 0
SJ0458 207.610 6.730 0 0 0
SJ0459 207.562 7.128 0 0 0
SJ0460 210.770 4.770 0 0 0
SJ0461 215.180 8.000 0 0 0
SJ0462 213.840 8.000 0 0 0
SJ0463 209.020 8.000 0 0 0
SJ0464 208.230 8.000 0 0 0
SJ0465 232.770 8.000 0 0 0
SJ0466 232.490 8.000 0 0 0
SJ0467 213.260 8.000 0 0 0
SJ0468 206.920 8.000 0 0 0
SJ0469 205.607 6.953 0 0 0
SJ0470 221.940 8.000 0 0 0
SJ0471 222.900 8.000 0 0 0
SJ0472 222.550 8.000 0 0 0
SJ0473 207.700 8.000 0 0 0
SJ0474 206.770 8.000 0 0 0
SJ0475 227.511 7.899 0 0 0
SJ0476 227.500 8.000 0 0 0
SJ0479 223.880 8.000 0 0 0
SJ0480 205.701 7.669 0 0 0
SJ0481 205.487 2.463 0 0 0
SJ0482 205.478 2.282 0 0 0
SJ0483 205.386 3.174 0 0 0
SJ0484 205.332 2.588 0 0 0
SJ0485 209.101 2.000 0 0 0
SJ0487 205.494 2.116 0 0 0
SJ0488 207.860 8.000 0 0 0
SJ0489 206.430 8.000 0 0 0
SJ0490 235.200 8.000 0 0 0
SJ0491 205.423 2.607 0 0 0
SJ0492 205.706 2.904 0 0 0
SJ0493 220.306 7.724 0 0 0
SJ0494 205.732 6.568 0 0 0
SJ0495 217.730 8.000 0 0 0
SJ0496 231.817 7.943 0 0 0
SJ0497 206.572 7.728 0 0 0
SJ0498 212.340 8.000 0 0 0
SJ0499 205.597 3.463 0 0 0
SJ0500 231.194 7.476 0 0 0
SJ0501 231.150 8.000 0 0 0
SJ0502 205.824 4.576 0 0 0
SJ0503 205.496 2.494 0 0 0
SJ0504 205.478 2.952 0 0 0
SJ0505 205.920 2.180 0 0 0
SJ0506 205.833 5.007 0 0 0
SJ0507 231.390 8.000 0 0 0
SJ0508 230.220 8.000 0 0 0
SJ0509 219.370 8.000 0 0 0
SJ0510 218.550 8.000 0 0 0
SJ0511 222.130 8.000 0 0 0
SJ0512 237.020 8.000 0 0 0
SJ0513 231.310 8.000 0 0 0
SJ0514 220.262 7.878 0 0 0
SJ0515 220.260 8.000 0 0 0
SJ0516 235.400 8.000 0 0 0
SJ0517 234.330 8.000 0 0 0
SJ0518 253.830 8.000 0 0 0
SJ0519 250.490 8.000 0 0 0
SJ0520 205.659 7.971 0 0 0
SJ0521 240.950 6.590 0 0 0
SJ0522 240.922 6.418 0 0 0
SJ0523 205.505 2.565 0 0 0
SJ0524 205.487 2.213 0 0 0
SJ0525 234.040 8.000 0 0 0
SJ0526 205.843 2.000 0 0 0
SJ0527 219.949 6.391 0 0 0
SJ0528 219.914 6.236 0 0 0
SJ0529 217.280 8.000 0 0 0
SJ0530 214.760 8.000 0 0 0
SJ0531 205.464 3.366 0 0 0
SJ0532 229.030 8.000 0 0 0
SJ0533 228.710 8.000 0 0 0
SJ0534 233.070 8.000 0 0 0
SJ0535 232.850 8.000 0 0 0
SJ0536 205.622 6.958 0 0 0
SJ0537 205.592 6.388 0 0 0
SJ0538 240.953 7.807 0 0 0
SJ0539 208.155 2.000 0 0 0
SJ0540 208.133 2.000 0 0 0
SJ0541 207.280 8.000 0 0 0
SJ0542 205.790 8.000 0 0 0
SJ0543 230.780 8.000 0 0 0
SJ0544 229.990 8.000 0 0 0
SJ0545 205.390 2.290 0 0 0
SJ0547 219.900 8.000 0 0 0
SJ0548 240.470 8.000 0 0 0
SJ0549 232.480 8.000 0 0 0
SJ0550 230.130 8.000 0 0 0
SJ0551 223.710 8.000 0 0 0
SJ0552 259.470 8.000 0 0 0
SJ0553 259.170 8.000 0 0 0
SJ0554 231.000 8.000 0 0 0
SJ0555 206.912 4.758 0 0 0
SJ0556 210.812 5.598 0 0 0
SJ0557 210.761 4.529 0 0 0
SJ0558 204.964 2.000 0 0 0
SJ0559 220.830 8.000 0 0 0
SJ0560 220.620 8.000 0 0 0
SJ0561 225.240 8.000 0 0 0
SJ0562 206.110 8.000 0 0 0
SJ0563 205.860 8.000 0 0 0
SJ0564 205.601 4.619 0 0 0
SJ0565 215.490 8.000 0 0 0
SJ0566 213.250 8.000 0 0 0
SJ0567 229.680 8.000 0 0 0
SJ0568 211.820 8.000 0 0 0
SJ0569 209.910 8.000 0 0 0
SJ0570 207.340 8.000 0 0 0
SJ0571 241.850 8.000 0 0 0
SJ0572 240.550 7.660 0 0 0
SJ0573 222.970 8.000 0 0 0
SJ0574 222.960 8.000 0 0 0
SJ0575 218.230 8.000 0 0 0
SJ0576 217.630 8.000 0 0 0
SJ0577 213.270 8.000 0 0 0
SJ0578 206.324 3.846 0 0 0
SJ0579 206.296 3.864 0 0 0
SJ0580 209.710 8.000 0 0 0
SJ0581 210.837 3.203 0 0 0
SJ0582 210.744 3.156 0 0 0
SJ0583 223.650 8.000 0 0 0
SJ0584 205.626 7.684 0 0 0
SJ0585 205.594 6.296 0 0 0
SJ0586 210.780 8.000 0 0 0
SJ0587 221.185 2.000 0 0 0
SJ0588 218.353 6.877 0 0 0
SJ0589 224.908 7.542 0 0 0
SJ0590 224.884 6.726 0 0 0
SJ0591 228.900 8.000 0 0 0
SJ0592 228.220 8.000 0 0 0
SJ0593 214.760 8.000 0 0 0
SJ0594 205.534 4.336 0 0 0
SJ0595 205.496 3.124 0 0 0
SJ0596 205.538 4.682 0 0 0
SJ0597 205.520 4.100 0 0 0
SJ0598 211.530 8.000 0 0 0
SJ0599 211.310 8.000 0 0 0
SJ0600 225.400 8.000 0 0 0
SJ0601 225.300 8.000 0 0 0
SJ0602 212.130 8.000 0 0 0
SJ0603 224.020 8.000 0 0 0
SJ0604 217.870 8.000 0 0 0
SJ0605 217.330 8.000 0 0 0
SJ0606 210.570 8.000 0 0 0
SJ0607 211.888 2.462 0 0 0
SJ0608 211.854 2.506 0 0 0
SJ0609 206.119 2.000 0 0 0
SJ0610 224.100 8.000 0 0 0
SJ0611 219.660 8.000 0 0 0
SJ0612 215.770 8.000 0 0 0
SJ0613 214.410 8.000 0 0 0
SJ0614 229.110 8.000 0 0 0
SJ0615 229.970 8.000 0 0 0
SJ0616 226.340 8.000 0 0 0
SJ0617 220.747 4.873 0 0 0
SJ0618 223.460 8.000 0 0 0
SJ0619 221.690 8.000 0 0 0
SJ0620 231.500 8.000 0 0 0
SJ0621 218.900 8.000 0 0 0
SJ0622 218.730 8.000 0 0 0
SJ0623 236.970 8.000 0 0 0
SJ0624 231.250 8.000 0 0 0
SJ0625 240.887 7.353 0 0 0
SJ0626 240.880 7.150 0 0 0
SJ0627 206.213 2.167 0 0 0
SJ0628 206.156 2.494 0 0 0
SJ0629 205.540 4.120 0 0 0
SJ0630 205.484 2.516 0 0 0
SJ0631 207.870 8.000 0 0 0
SJ0632 210.637 7.983 0 0 0
SJ0633 210.630 8.000 0 0 0
SJ0634 223.250 8.000 0 0 0
SJ0635 222.530 8.000 0 0 0
SJ0636 221.020 8.000 0 0 0
SJ0637 217.710 8.000 0 0 0
SJ0638 232.280 8.000 0 0 0
SJ0639 208.810 2.100 0 0 0
SJ0641 243.240 8.000 0 0 0
SJ0642 241.990 8.000 0 0 0
SJ0643 205.425 3.005 0 0 0
SJ0644 211.200 8.000 0 0 0
SJ0645 206.926 7.484 0 0 0
SJ0646 205.408 2.862 0 0 0
SJ0647 205.810 8.000 0 0 0
SJ0648 223.620 8.000 0 0 0
SJ0649 223.390 8.000 0 0 0
SJ0650 221.050 8.000 0 0 0
SJ0651 219.927 7.783 0 0 0
SJ0652 214.110 8.000 0 0 0
SJ0653 206.631 7.789 0 0 0
SJ0654 216.270 8.000 0 0 0
SJ0655 212.270 8.000 0 0 0
SJ0656 205.494 4.076 0 0 0
SJ0657 205.488 4.192 0 0 0
SJ0658 218.060 8.000 0 0 0
SJ0659 217.670 8.000 0 0 0
SJ0660 210.520 8.000 0 0 0
SJ0661 209.620 8.000 0 0 0
SJ0662 223.430 8.000 0 0 0
SJ0663 205.632 7.808 0 0 0
SJ0664 210.400 8.000 0 0 0
SJ0665 209.547 7.973 0 0 0
SJ0666 208.404 7.696 0 0 0
SJ0667 208.351 7.679 0 0 0
SJ0668 207.640 8.000 0 0 0
SJ0669 206.810 8.000 0 0 0
SJ0670 234.074 6.786 0 0 0
SJ0671 234.040 8.000 0 0 0
SJ0672 205.566 4.994 0 0 0
SJ0673 209.310 6.930 0 0 0
SJ0674 211.360 8.000 0 0 0
SJ0675 208.755 2.000 0 0 0
SJ0676 219.957 4.773 0 0 0
SJ0677 224.520 8.000 0 0 0
SJ0678 205.668 7.602 0 0 0
SJ0679 205.532 5.108 0 0 0
SJ0680 205.548 4.842 0 0 0
SJ0681 205.507 4.843 0 0 0
SJ0682 205.621 7.049 0 0 0
SJ0683 232.280 8.000 0 0 0
SJ0686 229.000 8.000 0 0 0
SJ0687 205.700 4.830 0 0 0
SJ0688 215.204 6.866 0 0 0
SJ0689 227.340 8.000 0 0 0
SJ0690 225.930 8.000 0 0 0
SJ0691 206.750 8.000 0 0 0
SJ0692 216.590 8.000 0 0 0
SJ0693 226.394 7.826 0 0 0
SJ0694 220.690 8.000 0 0 0
SJ0695 219.914 7.886 0 0 0
SJ0696 206.760 8.000 0 0 0
SJ0697 212.870 8.000 0 0 0
SJ0698 220.810 8.000 0 0 0
SJ0699 218.430 8.000 0 0 0
SJ0700 224.620 8.000 0 0 0
SJ0701 224.885 6.675 0 0 0
SJ0702 205.572 3.208 0 0 0
SJ0703 205.532 2.288 0 0 0
SJ0704 215.457 7.383 0 0 0
SJ0705 210.990 8.000 0 0 0
SJ0706 209.570 8.000 0 0 0
SJ0707 228.720 8.000 0 0 0
SJ0708 209.470 8.000 0 0 0
SJ0709 207.330 8.000 0 0 0
SJ0710 222.660 8.000 0 0 0
SJ0711 221.260 8.000 0 0 0
SJ0712 205.700 6.860 0 0 0
SJ0713 223.590 8.000 0 0 0
SJ0714 218.150 8.000 0 0 0
SJ0715 221.045 6.815 0 0 0
SJ0716 205.569 3.241 0 0 0
SJ0717 218.310 8.000 0 0 0
SJ0718 207.759 7.911 0 0 0
SJ0719 207.730 8.000 0 0 0
SJ0720 220.970 8.000 0 0 0
SJ0721 220.610 8.000 0 0 0
SJ0722 227.740 8.000 0 0 0
SJ0723 227.690 8.000 0 0 0
SJ0724 226.960 8.000 0 0 0
SJ0725 229.570 8.000 0 0 0
SJ0726 205.536 3.174 0 0 0
SJ0727 205.531 3.459 0 0 0
SJ0728 222.210 8.000 0 0 0
SJ0730 209.620 8.000 0 0 0
SJ0731 219.920 8.000 0 0 0
SJ0732 205.436 2.934 0 0 0
SJ0733 220.750 4.870 0 0 0
SJ0734 227.330 8.000 0 0 0
SJ0735 208.590 8.000 0 0 0
SJ0736 208.246 7.824 0 0 0
SJ0737 219.500 8.000 0 0 0
SJ0738 207.517 7.683 0 0 0
SJ0739 209.552 2.000 0 0 0
SJ0740 211.835 2.095 0 0 0
SJ0741 232.450 8.000 0 0 0
SJ0742 205.597 6.123 0 0 0
SJ0743 205.512 4.868 0 0 0
SJ0744 217.270 7.880 0 0 0
SJ0745 217.250 8.000 0 0 0
SJ0746 210.360 8.000 0 0 0
SJ0747 253.620 8.000 0 0 0
SJ0750 227.930 8.000 0 0 0
SJ0751 226.490 8.000 0 0 0
SJ0752 226.600 8.000 0 0 0
SJ0753 225.340 8.000 0 0 0
SJ0754 231.733 7.897 0 0 0
SJ0755 231.710 8.000 0 0 0
SJ0756 237.045 7.345 0 0 0
SJ0757 237.039 7.601 0 0 0
SJ0758 213.340 8.000 0 0 0
SJ0759 207.230 8.000 0 0 0
SJ0761 205.050 2.070 0 0 0
SJ0762 205.732 5.128 0 0 0
SJ0763 218.220 8.000 0 0 0
SJ0764 215.410 8.000 0 0 0
SJ0765 210.930 8.000 0 0 0
SJ0766 210.880 8.000 0 0 0
SJ0767 258.530 8.000 0 0 0
SJ0768 205.481 4.059 0 0 0
SJ0769 205.470 4.030 0 0 0
SJ0770 219.494 7.886 0 0 0
SJ0771 221.423 7.977 0 0 0
SJ0772 210.734 3.096 0 0 0
SJ0773 210.714 3.146 0 0 0
SJ0774 205.652 5.588 0 0 0
SJ0775 205.629 4.681 0 0 0
SJ0776 208.270 8.000 0 0 0
SJ0777 217.920 8.000 0 0 0
SJ0778 221.719 7.081 0 0 0
SJ0779 221.680 8.000 0 0 0
SJ0780 227.170 8.000 0 0 0
SJ0781 209.390 8.000 0 0 0
SJ0782 208.340 8.000 0 0 0
SJ0783 207.504 7.746 0 0 0
SJ0784 223.890 8.000 0 0 0
SJ0785 214.160 8.000 0 0 0
SJ0786 222.312 7.868 0 0 0
SJ0787 225.520 8.000 0 0 0
SJ0788 205.558 4.972 0 0 0
SJ0789 205.506 4.114 0 0 0
SJ0790 214.340 8.000 0 0 0
SJ0791 233.440 8.000 0 0 0
SJ0792 207.667 6.503 0 0 0
SJ0793 205.568 3.072 0 0 0
SJ0794 206.590 8.000 0 0 0
SJ0795 234.190 8.000 0 0 0
SJ0796 219.389 7.381 0 0 0
SJ0797 219.370 8.000 0 0 0
SJ0798 209.370 8.000 0 0 0
SJ0799 219.100 8.000 0 0 0
SJ0800 227.750 8.000 0 0 0
SJ0801 226.090 8.000 0 0 0
SJ0802 216.330 8.000 0 0 0
SJ0803 208.500 8.000 0 0 0
SJ0804 234.920 8.000 0 0 0
SJ0805 233.790 8.000 0 0 0
SJ0806 209.254 6.366 0 0 0
SJ0807 209.219 6.971 0 0 0
SJ0808 220.762 4.798 0 0 0
SJ0809 212.034 7.336 0 0 0
SJ0810 212.001 6.509 0 0 0
SJ0811 227.770 8.000 0 0 0
SJ0812 214.830 8.000 0 0 0
SJ0813 205.565 4.165 0 0 0
SJ0814 205.529 4.161 0 0 0
SJ0815 210.659 2.111 0 0 0
SJ0816 229.050 8.000 0 0 0
SJ0817 214.200 8.000 0 0 0
SJ0818 222.910 8.000 0 0 0
SJ0819 221.570 8.000 0 0 0
SJ0820 210.999 2.000 0 0 0
SJ0821 205.509 3.071 0 0 0
SJ0822 205.500 3.270 0 0 0
SJ0823 206.130 8.000 0 0 0
SJ0825 205.550 5.590 0 0 0
SJ0826 205.544 5.466 0 0 0
SJ0827 209.130 8.000 0 0 0
SJ0828 208.510 8.000 0 0 0
SJ0829 215.100 8.000 0 0 0
SJ0830 207.588 6.762 0 0 0
SJ0831 232.000 8.000 0 0 0
SJ0832 231.430 8.000 0 0 0
SJ0833 205.489 2.861 0 0 0
SJ0834 217.736 7.964 0 0 0
SJ0835 205.530 4.070 0 0 0
SJ0836 207.810 8.000 0 0 0
SJ0837 207.600 8.000 0 0 0
SJ0838 205.500 4.030 0 0 0
SJ0839 239.263 4.817 0 0 0
SJ0840 207.190 8.000 0 0 0
SJ0841 206.660 8.000 0 0 0
SJ0842 206.380 8.000 0 0 0
SJ0843 235.470 8.000 0 0 0
SJ0844 255.280 8.000 0 0 0
SJ0845 251.220 8.000 0 0 0
SJ0846 224.890 6.580 0 0 0
SJ0847 226.470 8.000 0 0 0
SJ0848 224.950 8.000 0 0 0
SJ0849 209.600 2.410 0 0 0
SJ0850 209.590 2.240 0 0 0
SJ0852 212.510 8.000 0 0 0
SJ0853 249.390 8.000 0 0 0
SJ0854 205.786 2.894 0 0 0
SJ0855 225.590 8.000 0 0 0
SJ0856 220.350 8.000 0 0 0
SJ0857 205.469 3.531 0 0 0
SJ0858 237.270 8.000 0 0 0
SJ0859 236.380 8.000 0 0 0
SJ0860 229.380 8.000 0 0 0
SJ0861 231.491 7.679 0 0 0
SJ0862 219.820 8.000 0 0 0
SJ0863 206.140 2.020 0 0 0
SJ0865 209.070 8.000 0 0 0
SJ0866 216.770 8.000 0 0 0
SJ0867 212.030 8.000 0 0 0
SJ0868 232.685 5.755 0 0 0
SJ0869 232.644 6.386 0 0 0
SJ0870 205.609 2.000 0 0 0
SJ0871 205.577 2.113 0 0 0
SJ0872 228.740 8.000 0 0 0
SJ0873 227.730 8.000 0 0 0
SJ0874 206.260 8.000 0 0 0
SJ0875 219.010 8.000 0 0 0
SJ0876 207.260 8.000 0 0 0
SJ0877 206.858 7.912 0 0 0
SJ0878 222.810 8.000 0 0 0
SJ0879 217.451 7.789 0 0 0
SJ0880 205.598 3.042 0 0 0
SJ0881 205.585 3.005 0 0 0
SJ0882 249.144 6.556 0 0 0
SJ0883 210.807 4.793 0 0 0
SJ0884 210.785 4.385 0 0 0
SJ0885 209.880 8.000 0 0 0
SJ0886 235.450 8.000 0 0 0
SJ0887 228.530 8.000 0 0 0
SJ0888 205.898 6.902 0 0 0
SJ0889 205.833 4.207 0 0 0
SJ0890 217.743 7.947 0 0 0
SJ0891 205.675 5.435 0 0 0
SJ0892 205.647 5.403 0 0 0
SJ0893 207.512 7.228 0 0 0
SJ0894 207.492 7.698 0 0 0
SJ0895 217.610 8.000 0 0 0
SJ0896 214.510 8.000 0 0 0
SJ0897 228.080 8.000 0 0 0
SJ0898 209.290 8.000 0 0 0
SJ0899 228.130 8.000 0 0 0
SJ0900 209.734 7.786 0 0 0
SJ0901 206.520 8.000 0 0 0
SJ0902 229.640 8.000 0 0 0
SJ0903 205.422 3.988 0 0 0
SJ0904 225.630 8.000 0 0 0
SJ0905 205.060 2.710 0 0 0
SJ0906 205.023 2.307 0 0 0
SJ0907 221.690 8.000 0 0 0
SJ0908 208.235 7.935 0 0 0
SJ0909 219.203 7.977 0 0 0
SJ0910 229.500 8.000 0 0 0
SJ0911 210.674 2.446 0 0 0
SJ0912 205.403 2.000 0 0 0
SJ0913 224.570 8.000 0 0 0
SJ0914 223.940 8.000 0 0 0
SJ0915 207.960 8.000 0 0 0
SJ0916 205.770 8.000 0 0 0
SJ0917 209.540 8.000 0 0 0
SJ0918 207.560 8.000 0 0 0
SJ0919 239.700 8.000 0 0 0
SJ0920 237.960 8.000 0 0 0
SJ0921 225.260 8.000 0 0 0
SJ0922 222.560 8.000 0 0 0
SJ0923 209.646 2.864 0 0 0
SJ0924 209.629 2.601 0 0 0
SJ0925 212.043 6.887 0 0 0
SJ0926 212.025 6.525 0 0 0
SJ0927 228.850 8.000 0 0 0
SJ0928 212.960 8.000 0 0 0
SJ0929 209.277 6.443 0 0 0
SJ0930 206.317 4.683 0 0 0
SJ0931 208.269 7.691 0 0 0
SJ0932 216.568 7.872 0 0 0
SJ0933 216.520 8.000 0 0 0
SJ0934 206.757 7.473 0 0 0
SJ0935 205.578 5.102 0 0 0
SJ0936 205.567 4.783 0 0 0
SJ0937 219.770 8.000 0 0 0
SJ0938 205.629 7.371 0 0 0
SJ0939 207.060 8.000 0 0 0
SJ0940 237.350 8.000 0 0 0
SJ0941 236.382 7.938 0 0 0
SJ0942 205.734 2.000 0 0 0
SJ0943 205.703 2.197 0 0 0
SJ0944 211.170 8.000 0 0 0
SJ0945 205.577 3.973 0 0 0
SJ0946 205.538 3.532 0 0 0
SJ0947 214.213 7.787 0 0 0
SJ0948 221.351 6.919 0 0 0
SJ0949 221.330 8.000 0 0 0
SJ0950 223.465 7.975 0 0 0
SJ0951 205.651 3.859 0 0 0
SJ0952 205.645 3.805 0 0 0
SJ0953 224.860 8.000 0 0 0
SJ0954 210.759 3.841 0 0 0
SJ0955 212.370 8.000 0 0 0
SJ0956 205.542 4.688 0 0 0
SJ0957 231.520 8.000 0 0 0
SJ0958 231.433 7.987 0 0 0
SJ0959 222.210 8.000 0 0 0
SJ0960 207.520 8.000 0 0 0
SJ0961 206.210 8.000 0 0 0
SJ0962 240.987 6.903 0 0 0
SJ0963 229.140 8.000 0 0 0
SJ0964 235.213 7.517 0 0 0
SJ0965 233.210 8.000 0 0 0
SJ0966 210.060 8.000 0 0 0
SJ0967 207.590 8.000 0 0 0
SJ0968 208.630 8.000 0 0 0
SJ0969 233.460 8.000 0 0 0
SJ0970 233.410 8.000 0 0 0
SJ0972 221.570 8.000 0 0 0
SJ0973 211.790 8.000 0 0 0
SJ0974 206.878 7.142 0 0 0
SJ0975 222.160 8.000 0 0 0
SJ0976 221.910 8.000 0 0 0
SJ0977 237.970 8.000 0 0 0
SJ0978 207.970 8.000 0 0 0
SJ0979 206.740 8.000 0 0 0
SJ0980 214.930 8.000 0 0 0
SJ0981 210.650 8.000 0 0 0
SJ0982 228.302 7.368 0 0 0
SJ0983 228.280 8.000 0 0 0
SJ0984 226.920 8.000 0 0 0
SJ0985 209.198 7.852 0 0 0
SJ0986 218.620 8.000 0 0 0
SJ0987 211.714 2.086 0 0 0
SJ0988 205.571 5.759 0 0 0
SJ0989 226.150 8.000 0 0 0
SJ0990 206.670 8.000 0 0 0
SJ0991 206.232 7.998 0 0 0
SJ0992 227.850 8.000 0 0 0
SJ0993 237.850 8.000 0 0 0
SJ0994 205.595 5.835 0 0 0
SJ0995 205.581 5.279 0 0 0
SJ0996 205.427 2.043 0 0 0
SJ0997 205.654 4.386 0 0 0
SJ0998 207.901 7.779 0 0 0
SJ0999 215.472 7.028 0 0 0
SJ1000 220.364 5.236 0 0 0
SJ1001 210.779 4.741 0 0 0
SJ1002 210.754 4.346 0 0 0
SJ1003 207.477 7.833 0 0 0
SJ1004 216.643 7.637 0 0 0
SJ1005 227.780 8.000 0 0 0
SJ1006 205.678 2.000 0 0 0
SJ1007 210.878 7.392 0 0 0
SJ1008 210.845 6.605 0 0 0
SJ1009 205.633 4.787 0 0 0
SJ1010 232.130 7.740 0 0 0
SJ1011 210.713 2.000 0 0 0
SJ1012 206.870 8.000 0 0 0
SJ1013 220.660 8.000 0 0 0
SJ1014 220.500 8.000 0 0 0
SJ1015 205.466 2.874 0 0 0
SJ1016 214.486 7.084 0 0 0
SJ1017 214.220 8.000 0 0 0
SJ1018 207.570 8.000 0 0 0
SJ1019 223.399 7.911 0 0 0
SJ1020 205.082 2.978 0 0 0
SJ1021 208.358 7.092 0 0 0
SJ1022 205.688 6.892 0 0 0
SJ1023 217.169 2.871 0 0 0
SJ1024 212.707 7.903 0 0 0
SJ1025 238.980 8.000 0 0 0
SJ1026 210.455 2.000 0 0 0
SJ1027 205.829 7.291 0 0 0
SJ1029 220.120 8.000 0 0 0
SJ1030 225.920 8.000 0 0 0
SJ1031 205.653 5.497 0 0 0
SJ1032 221.000 6.930 0 0 0
SJ1033 221.310 8.000 0 0 0
SJ1034 205.460 5.190 0 0 0
SJ1035 222.360 8.000 0 0 0
SJ1036 208.136 2.314 0 0 0
SJ1037 218.830 6.830 0 0 0
SJ1038 209.550 8.000 0 0 0
SJ1039 208.700 8.000 0 0 0
SJ1040 208.020 8.000 0 0 0
SJ1041 205.685 5.065 0 0 0
SJ1042 205.526 2.324 0 0 0
SJ1043 209.231 7.459 0 0 0
SJ1044 212.982 7.568 0 0 0
SJ1045 210.350 8.000 0 0 0
SJ1046 205.505 3.345 0 0 0
SJ1047 207.480 8.000 0 0 0
SJ1048 230.040 8.000 0 0 0
SJ1049 207.605 7.055 0 0 0
SJ1050 220.354 6.476 0 0 0
SJ1051 230.558 7.922 0 0 0
SJ1052 230.550 8.000 0 0 0
SJ1053 206.540 8.000 0 0 0
SJ1054 205.605 4.035 0 0 0
SJ1055 228.860 8.000 0 0 0
SJ1056 205.619 6.221 0 0 0
SJ1057 211.800 8.000 0 0 0
SJ1058 210.882 7.838 0 0 0
SJ1059 207.900 8.000 0 0 0
SJ1060 209.220 6.890 0 0 0
SJ1061 212.460 8.000 0 0 0
SJ1062 224.911 6.259 0 0 0
SJ1063 205.711 6.859 0 0 0
SJ1064 205.598 6.672 0 0 0
SJ1065 219.045 7.975 0 0 0
SJ1066 210.720 3.000 0 0 0
SJ1067 205.011 2.009 0 0 0
SJ1068 227.774 7.836 0 0 0
SJ1069 240.925 7.975 0 0 0
SJ1070 211.080 8.000 0 0 0
SJ1071 205.606 6.594 0 0 0
SJ1072 209.183 7.917 0 0 0
SJ1073 213.282 7.838 0 0 0
SJ1074 226.400 8.000 0 0 0
SJ1076 233.110 8.000 0 0 0
SJ1077 211.562 7.948 0 0 0
SJ1078 220.560 8.000 0 0 0
SJ1079 217.190 8.000 0 0 0
SJ1080 231.420 8.000 0 0 0
SJ1081 236.864 7.956 0 0 0
SJ1082 205.555 3.335 0 0 0
SJ1083 205.516 3.684 0 0 0
SJ1084 226.412 7.798 0 0 0
SJ1085 213.950 8.000 0 0 0
SJ1086 208.425 7.365 0 0 0
SJ1087 205.474 2.000 0 0 0
SJ1088 223.620 8.000 0 0 0
SJ1089 208.260 8.000 0 0 0
SJ1090 212.610 8.000 0 0 0
SJ1091 252.090 8.000 0 0 0
SJ1092 222.880 8.000 0 0 0
SJ1093 210.757 2.863 0 0 0
SJ1094 205.602 5.978 0 0 0
SJ1095 207.661 5.679 0 0 0
SJ1096 220.970 8.000 0 0 0
SJ1097 210.470 8.000 0 0 0
SJ1098 217.710 8.000 0 0 0
SJ1099 239.010 8.000 0 0 0
SJ1100 205.528 2.412 0 0 0
SJ1101 212.139 7.741 0 0 0
SJ1102 207.650 8.000 0 0 0
SJ1103 221.840 8.000 0 0 0
SJ1104 221.540 8.000 0 0 0
SJ1105 225.150 8.000 0 0 0
SJ1106 224.110 8.000 0 0 0
SJ1107 236.420 8.000 0 0 0
SJ1108 205.596 3.634 0 0 0
SJ1109 214.549 7.841 0 0 0
SJ1110 206.802 7.978 0 0 0
SJ1111 227.300 8.000 0 0 0
SJ1112 234.840 8.000 0 0 0
SJ1113 207.010 8.000 0 0 0
SJ1114 223.950 7.630 0 0 0
SJ1115 207.884 6.266 0 0 0
SJ1116 212.160 8.000 0 0 0
SJ1117 214.410 8.000 0 0 0
SJ1118 239.244 7.376 0 0 0
SJ1119 215.808 7.132 0 0 0
SJ1120 205.485 2.085 0 0 0
SJ1121 205.607 4.813 0 0 0
SJ1122 239.212 7.268 0 0 0
SJ1123 212.160 8.000 0 0 0
SJ1124 205.571 5.719 0 0 0
SJ1125 210.560 8.000 0 0 0
SJ1126 205.433 2.777 0 0 0
SJ1127 214.920 8.000 0 0 0
SJ1128 214.490 8.000 0 0 0
SJ1129 205.539 4.401 0 0 0
SJ1130 208.180 8.000 0 0 0
SJ1131 210.999 2.451 0 0 0
SJ1132 231.090 8.000 0 0 0
SJ1133 226.361 7.319 0 0 0
SJ1134 205.711 6.259 0 0 0
SJ1135 207.561 6.929 0 0 0
SJ1136 205.561 2.949 0 0 0
SJ1137 224.271 7.999 0 0 0
SJ1138 205.550 2.130 0 0 0
SJ1139 220.210 8.000 0 0 0
SJ1140 229.734 6.326 0 0 0
SJ1141 219.800 8.000 0 0 0
SJ1142 207.551 7.469 0 0 0
SJ1144 232.694 5.446 0 0 0
SJ1145 205.324 2.066 0 0 0
SJ1146 210.914 7.226 0 0 0
SJ1147 205.702 6.628 0 0 0
SJ1148 209.800 8.000 0 0 0
SJ1149 221.943 7.887 0 0 0
SJ1150 244.320 8.000 0 0 0
SJ1151 242.920 8.000 0 0 0
SJ1152 205.574 4.776 0 0 0
SJ1153 224.260 8.000 0 0 0
SJ1154 206.939 3.331 0 0 0
SJ1155 240.530 8.000 0 0 0
SJ1156 228.540 8.000 0 0 0
SJ1157 205.726 4.154 0 0 0
SJ1158 227.010 8.000 0 0 0
SJ1159 221.028 7.902 0 0 0
SJ1160 219.933 7.717 0 0 0
SJ1161 208.446 7.164 0 0 0
SJ1162 231.464 7.386 0 0 0
SJ1163 228.290 8.000 0 0 0
SJ1164 223.810 8.000 0 0 0
SJ1165 206.196 2.604 0 0 0
SJ1166 209.032 7.508 0 0 0
SJ1167 220.820 8.000 0 0 0
SJ1168 229.100 8.000 0 0 0
SJ1169 222.180 8.000 0 0 0
SJ1170 225.890 8.000 0 0 0
SJ1171 217.310 8.000 0 0 0
SJ1172 219.653 7.967 0 0 0
SJ1173 230.576 7.804 0 0 0
SJ1174 207.593 7.857 0 0 0
SJ1175 227.630 8.000 0 0 0
SJ1176 214.529 7.091 0 0 0
SJ1177 226.611 7.649 0 0 0
SJ1178 205.496 4.094 0 0 0
SJ1179 229.450 8.000 0 0 0
SJ1180 206.663 6.857 0 0 0
SJ1181 205.550 4.170 0 0 0
SJ1182 205.559 6.031 0 0 0
SJ1183 219.066 7.684 0 0 0
SJ1184 207.210 8.000 0 0 0
SJ1185 205.107 3.123 0 0 0
SJ1186 209.621 2.899 0 0 0
SJ1187 212.627 7.813 0 0 0
SJ1188 218.420 8.000 0 0 0
SJ1189 205.645 2.545 0 0 0
SJ1190 205.928 7.782 0 0 0
SJ1191 205.545 3.315 0 0 0
SJ1192 229.280 8.000 0 0 0
SJ1193 209.450 8.000 0 0 0
SJ1194 210.670 2.080 0 0 0
SJ1195 225.300 8.000 0 0 0
SJ1196 205.623 2.917 0 0 0
SJ1197 205.619 2.271 0 0 0
SJ1198 210.700 8.000 0 0 0
SJ1199 229.710 8.000 0 0 0
SJ1200 205.593 2.367 0 0 0
SJ1201 209.665 2.295 0 0 0
SJ1202 206.936 4.244 0 0 0
SJ1203 236.800 8.000 0 0 0
SJ1204 234.740 8.000 0 0 0
SJ1205 245.137 6.593 0 0 0
SJ1206 225.699 7.501 0 0 0
SJ1207 205.624 2.566 0 0 0
SJ1208 205.543 5.327 0 0 0
SJ1210 227.580 8.000 0 0 0
SJ1211 205.444 2.456 0 0 0
SJ1212 224.750 8.000 0 0 0
SJ1213 208.250 8.000 0 0 0
SJ1214 207.625 7.785 0 0 0
SJ1215 230.026 6.704 0 0 0
SJ1216 231.130 8.000 0 0 0
SJ1217 228.350 8.000 0 0 0
SJ1218 205.561 5.669 0 0 0
SJ1219 205.526 3.554 0 0 0
SJ1220 211.684 3.326 0 0 0
SJ1221 210.220 8.000 0 0 0
SJ1222 211.160 8.000 0 0 0
SJ1223 206.140 8.000 0 0 0
SJ1224 220.364 6.526 0 0 0
SJ1225 222.570 7.470 0 0 0
SJ1226 220.876 2.704 0 0 0
SJ1227 206.125 2.000 0 0 0
SJ1228 205.488 3.142 0 0 0
SJ1229 218.640 8.000 0 0 0
SJ1230 226.417 7.133 0 0 0
SJ1231 234.345 7.675 0 0 0
SJ1232 215.980 8.000 0 0 0
SJ1233 205.614 6.086 0 0 0
SJ1234 209.280 8.000 0 0 0
SJ1235 226.425 7.895 0 0 0
SJ1236 232.712 5.028 0 0 0
SJ1237 205.508 2.000 0 0 0
SJ1238 206.646 6.254 0 0 0
SJ1239 211.661 2.969 0 0 0

[STORAGE]
;;Name Elev MaxDepth InitDepth Shape A1 A2 A0 SurDepth Fevap Psi Ksat IMD
SJ0315 205.490 2.000 0 FUNCTIONAL 0 0 25 0 0
SJ0321 205.010 2.000 0 FUNCTIONAL 0 0 25 0 0
SJ0337 205.420 2.000 0 FUNCTIONAL 0 0 25 0 0
SJ0344 204.960 2.000 0 FUNCTIONAL 0 0 25 0 0
SJ0352 206.100 2.000 0 FUNCTIONAL 0 0 25 0 0
SJ0376 210.430 2.000 0 FUNCTIONAL 0 0 25 0 0
SJ0477 209.550 2.000 0 FUNCTIONAL 0 0 25 0 0
SJ0478 210.650 2.000 0 FUNCTIONAL 0 0 25 0 0
SJ0486 209.080 2.000 0 FUNCTIONAL 0 0 25 0 0
SJ0546 205.370 2.000 0 FUNCTIONAL 0 0 25 0 0
SJ0640 208.740 2.000 0 FUNCTIONAL 0 0 25 0 0
SJ0684 206.590 2.000 0 FUNCTIONAL 0 0 25 0 0
SJ0685 207.750 2.000 0 FUNCTIONAL 0 0 25 0 0
SJ0729 210.980 2.000 0 FUNCTIONAL 0 0 25 0 0
SJ0748 207.990 2.000 0 FUNCTIONAL 0 0 25 0 0
SJ0749 208.810 2.000 0 FUNCTIONAL 0 0 25 0 0
SJ0760 208.580 2.000 0 FUNCTIONAL 0 0 25 0 0
SJ0824 208.120 2.000 0 FUNCTIONAL 0 0 25 0 0
SJ0851 205.300 2.000 0 FUNCTIONAL 0 0 25 0 0
SJ0864 210.410 2.000 0 FUNCTIONAL 0 0 25 0 0
SJ0971 205.660 2.000 0 FUNCTIONAL 0 0 25 0 0
SJ1028 206.120 2.000 0 FUNCTIONAL 0 0 25 0 0
SJ1075 210.290 2.000 0 FUNCTIONAL 0 0 25 0 0
SJ1143 207.050 2.000 0 FUNCTIONAL 0 0 25 0 0
SJ1209 208.590 2.000 0 FUNCTIONAL 0 0 25 0 0

[OUTFALLS]
;;Name Elevation Type StageData Gated RouteTo
SJ0242 211.660 FREE NO

[CONDUITS]
;;Name FromNode ToNode Length Roughness InOffset OutOffset InitFlow MaxFlow
SC0001 SJ0001 SJ0002 301.25 0.0130 0 0 0 0
SC0002 SJ0002 SJ0062 293.73 0.0130 0 0 0 0
SC0003 SJ0003 SJ0004 115.44 0.0130 0 0 0 0
SC0004 SJ0004 SJ0928 176.71 0.0130 0 0 0 0
SC0005 SJ0005 SJ0006 68.80 0.0130 0 0 0 0
SC0006 SJ0006 SJ0860 347.97 0.0130 0 0 0 0
SC0007 SJ0007 SJ0008 144.24 0.0130 0 0 0 0
SC0008 SJ0008 SJ0011 79.35 0.0130 0 0 0 0
SC0009 SJ0009 SJ0010 191.40 0.0130 0 0 0 0
SC0010 SJ0010 SJ0566 53.73 0.0130 0 0 0 0
SC0011 SJ0011 SJ0611 67.85 0.0130 0 0 0 0
SC0012 SJ0012 SJ0013 31.88 0.0130 0 0 0 0
SC0013 SJ0013 SJ0072 64.84 0.0130 0 0 0 0
SC0014 SJ0014 SJ0015 60.74 0.0130 0 0 0 0
SC0015 SJ0015 SJ0307 21.28 0.0130 0 0 0 0
SC0016 SJ0016 SJ0017 165.67 0.0130 0 0 0 0
SC0017 SJ0017 SJ0492 163.26 0.0130 0 0 0 0
SC0018 SJ0018 SJ0019 572.19 0.0130 0 0 0 0
SC0019 SJ0019 SJ0400 81.10 0.0130 0 0 0 0
SC0020 SJ0020 SJ0021 236.89 0.0130 0 0 0 0
SC0021 SJ0021 SJ0525 93.65 0.0130 0 0 0 0
SC0022 SJ0022 SJ0023 505.19 0.0130 0 0 0 0
SC0023 SJ0023 SJ0438 20.97 0.0130 0 0 0 0
SC0024 SJ0024 SJ0025 132.02 0.0130 0 0 0 0
SC0025 SJ0025 SJ0058 57.51 0.0130 0 0 0 0
SC0026 SJ0026 SJ0027 190.48 0.0130 0 0 0 0
SC0027 SJ0027 SJ0442 48.24 0.0130 0 0 0 0
SC0028 SJ0028 SJ0029 112.58 0.0130 0 0 0 0
SC0029 SJ0029 SJ0822 109.30 0.0130 0 0 0 0
SC0030 SJ0030 SJ0031 67.48 0.0130 0 0 0 0
SC0031 SJ0031 SJ0654 707.87 0.0130 0 0 0 0
SC0032 SJ0032 SJ0033 130.59 0.0130 0 0 0 0
SC0033 SJ0033 SJ1028 496.47 0.0130 0 0 0 0
SC0034 SJ0034 SJ0035 155.01 0.0130 0 0 0 0
SC0035 SJ0035 SJ0952 157.28 0.0130 0 0 0 0
SC0036 SJ0036 SJ0037 165.89 0.0130 0 0 0 0
SC0037 SJ0037 SJ0717 156.38 0.0130 0 0 0 0
SC0038 SJ0038 SJ0039 269.79 0.0130 0 0 0 0
SC0039 SJ0039 SJ0351 921.82 0.0130 0 0 0 0
SC0040 SJ0040 SJ0041 339.95 0.0130 0 0 0 0
SC0041 SJ0041 SJ0487 59.22 0.0130 0 0 0 0
SC0042 SJ0042 SJ0043 169.13 0.0130 0 0 0 0
SC0043 SJ0043 SJ0917 147.16 0.0130 0 0 0 0
SC0044 SJ0044 SJ0045 310.38 0.0130 0 0 0 0
SC0045 SJ0045 SJ0233 277.83 0.0130 0 0 0 0
SC0046 SJ0046 SJ0047 74.97 0.0130 0 0 0 0
SC0047 SJ0047 SJ0753 124.79 0.0130 0 0 0 0
SC0048 SJ0048 SJ0049 69.06 0.0130 0 0 0 0
SC0049 SJ0049 SJ0109 3.30 0.0130 0 0 0 0
SC0050 SJ0050 SJ0051 93.50 0.0130 0 0 0 0
SC0051 SJ0051 SJ0169 588.39 0.0130 0 0 0 0
SC0052 SJ0052 SJ0053 66.54 0.0130 0 0 0 0
SC0053 SJ0053 SJ0002 374.07 0.0130 0 0 0 0
SC0054 SJ0054 SJ0055 64.65 0.0130 0 0 0 0
SC0055 SJ0055 SJ0354 109.54 0.0130 0 0 0 0
SC0056 SJ0056 SJ0057 155.89 0.0130 0 0 0 0
SC0057 SJ0057 SJ0677 226.40 0.0130 0 0 0 0
SC0058 SJ0058 SJ0059 6.85 0.0130 0 0 0 0
SC0059 SJ0059 SJ0292 37.18 0.0130 0 0 0 0
SC0060 SJ0060 SJ0061 94.30 0.0130 0 0 0 0
SC0061 SJ0061 SJ0867 341.94 0.0130 0 0 0 0
SC0062 SJ0062 SJ0063 77.33 0.0130 0 0 0 0
SC0063 SJ0063 SJ0335 28.07 0.0130 0 0 0 0
SC0064 SJ0064 SJ0024 72.74 0.0130 0 0 0 0
SC0065 SJ0065 SJ0066 80.73 0.0130 0 0 0 0
SC0066 SJ0066 SJ0713 73.62 0.0130 0 0 0 0
SC0067 SJ0067 SJ0068 45.43 0.0130 0 0 0 0
SC0068 SJ0068 SJ0493 48.65 0.0130 0 0 0 0
SC0069 SJ0069 SJ0070 194.09 0.0130 0 0 0 0
SC0070 SJ0070 SJ0003 67.69 0.0130 0 0 0 0
SC0071 SJ0071 SJ0072 85.08 0.0130 0 0 0 0
SC0072 SJ0072 SJ0374 81.36 0.0130 0 0 0 0
SC0073 SJ0073 SJ0074 57.94 0.0130 0 0 0 0
SC0074 SJ0074 SJ0424 88.82 0.0130 0 0 0 0
SC0075 SJ0075 SJ0076 74.66 0.0130 0 0 0 0
SC0076 SJ0076 SJ0594 137.39 0.0130 0 0 0 0
SC0077 SJ0077 SJ0078 157.34 0.0130 0 0 0 0
SC0078 SJ0078 SJ0549 87.77 0.0130 0 0 0 0
SC0079 SJ0079 SJ0080 110.64 0.0130 0 0 0 0
SC0080 SJ0080 SJ0668 304.66 0.0130 0 0 0 0
SC0081 SJ0081 SJ0082 47.48 0.0130 0 0 0 0
SC0082 SJ0082 SJ0001 135.79 0.0130 0 0 0 0
SC0083 SJ0083 SJ0084 137.59 0.0130 0 0 0 0
SC0084 SJ0084 SJ0043 76.01 0.0130 0 0 0 0
SC0085 SJ0085 SJ0086 148.76 0.0130 0 0 0 0
SC0086 SJ0086 SJ0617 586.25 0.0130 0 0 0 0
SC0087 SJ0087 SJ0088 120.41 0.0130 0 0 0 0
SC0088 SJ0088 SJ0709 188.16 0.0130 0 0 0 0
SC0089 SJ0089 SJ0090 79.89 0.0130 0 0 0 0
SC0090 SJ0090 SJ0243 379.08 0.0130 0 0 0 0
SC0091 SJ0091 SJ0092 149.30 0.0130 0 0 0 0
SC0092 SJ0092 SJ0041 209.29 0.0130 0 0 0 0
SC0093 SJ0093 SJ0094 117.15 0.0130 0 0 0 0
SC0094 SJ0094 SJ0599 77.44 0.0130 0 0 0 0
SC0095 SJ0095 SJ0096 182.63 0.0130 0 0 0 0
SC0096 SJ0096 SJ0122 39.36 0.0130 0 0 0 0
SC0097 SJ0097 SJ0098 201.33 0.0130 0 0 0 0
SC0098 SJ0098 SJ0335 96.44 0.0130 0 0 0 0
SC0099 SJ0099 SJ0100 53.04 0.0130 0 0 0 0
SC0100 SJ0100 SJ0823 170.81 0.0130 0 0 0 0
SC0101 SJ0101 SJ0102 26.65 0.0130 0 0 0 0
SC0102 SJ0102 SJ0569 448.77 0.0130 0 0 0 0
SC0103 SJ0103 SJ0027 42.30 0.0130 0 0 0 0
SC0104 SJ0104 SJ0105 128.65 0.0130 0 0 0 0
SC0105 SJ0105 SJ0546 35.03 0.0130 0 0 0 0
SC0106 SJ0106 SJ0047 57.43 0.0130 0 0 0 0
SC0107 SJ0107 SJ0108 186.91 0.0130 0 0 0 0
SC0108 SJ0108 SJ0491 108.21 0.0130 0 0 0 0
SC0109 SJ0109 SJ1105 156.50 0.0130 0 0 0 0
SC0110 SJ0110 SJ0111 177.12 0.0130 0 0 0 0
SC0111 SJ0111 SJ0993 168.83 0.0130 0 0 0 0
SC0112 SJ0112 SJ0113 107.31 0.0130 0 0 0 0
SC0113 SJ0113 SJ0436 210.09 0.0130 0 0 0 0
SC0114 SJ0114 SJ0115 231.96 0.0130 0 0 0 0
SC0115 SJ0115 SJ0006 269.14 0.0130 0 0 0 0
SC0116 SJ0116 SJ0117 569.12 0.0130 0 0 0 0
SC0117 SJ0117 SJ0152 191.86 0.0130 0 0 0 0
SC0118 SJ0118 SJ0119 51.17 0.0130 0 0 0 0
SC0119 SJ0119 SJ1112 189.64 0.0130 0 0 0 0
SC0120 SJ0120 SJ0121 111.87 0.0130 0 0 0 0
SC0121 SJ0121 SJ0746 119.55 0.0130 0 0 0 0
SC0122 SJ0122 SJ0123 76.10 0.0130 0 0 0 0
SC0123 SJ0123 SJ0935 99.01 0.0130 0 0 0 0
SC0124 SJ0124 SJ0125 66.43 0.0130 0 0 0 0
SC0125 SJ0125 SJ0715 9.96 0.0130 0 0 0 0
SC0126 SJ0126 SJ0127 1848.09 0.0130 0 0 0 0
SC0127 SJ0127 SJ0154 336.91 0.0130 0 0 0 0
SC0128 SJ0128 SJ0129 224.30 0.0130 0 0 0 0
SC0129 SJ0129 SJ0973 167.30 0.0130 0 0 0 0
SC0130 SJ0130 SJ0131 11.45 0.0130 0 0 0 0
SC0131 SJ0131 SJ0256 60.79 0.0130 0 0 0 0
SC0132 SJ0132 SJ0133 182.61 0.0130 0 0 0 0
SC0133 SJ0133 SJ0121 179.86 0.0130 0 0 0 0
SC0134 SJ0134 SJ0135 37.10 0.0130 0 0 0 0
SC0135 SJ0135 SJ0474 119.43 0.0130 0 0 0 0
SC0136 SJ0136 SJ0137 344.94 0.0130 0 0 0 0
SC0137 SJ0137 SJ0267 964.23 0.0130 0 0 0 0
SC0138 SJ0138 SJ0139 118.32 0.0130 0 0 0 0
SC0139 SJ0139 SJ0359 182.19 0.0130 0 0 0 0
SC0140 SJ0140 SJ0141 280.54 0.0130 0 0 0 0
SC0141 SJ0141 SJ0980 233.72 0.0130 0 0 0 0
SC0142 SJ0142 SJ0143 36.25 0.0130 0 0 0 0
SC0143 SJ0143 SJ0069 37.18 0.0130 0 0 0 0
SC0144 SJ0144 SJ0145 161.66 0.0130 0 0 0 0
SC0145 SJ0145 SJ0507 504.78 0.0130 0 0 0 0
SC0146 SJ0146 SJ0147 1071.37 0.0130 0 0 0 0
SC0147 SJ0147 SJ0280 184.55 0.0130 0 0 0 0
SC0148 SJ0148 SJ0034 241.10 0.0130 0 0 0 0
SC0149 SJ0149 SJ0150 33.07 0.0130 0 0 0 0
SC0150 SJ0150 SJ0208 254.96 0.0130 0 0 0 0
SC0151 SJ0151 SJ0052 230.46 0.0130 0 0 0 0
SC0152 SJ0152 SJ0079 313.53 0.0130 0 0 0 0
SC0153 SJ0153 SJ0154 303.31 0.0130 0 0 0 0
SC0154 SJ0154 SJ0719 215.16 0.0130 0 0 0 0
SC0155 SJ0155 SJ0156 128.58 0.0130 0 0 0 0
SC0156 SJ0156 SJ0396 500.02 0.0130 0 0 0 0
SC0157 SJ0157 SJ0158 88.75 0.0130 0 0 0 0
SC0158 SJ0158 SJ0301 1027.16 0.0130 0 0 0 0
SC0159 SJ0159 SJ0160 164.44 0.0130 0 0 0 0
SC0160 SJ0160 SJ0450 90.49 0.0130 0 0 0 0
SC0161 SJ0161 SJ0162 170.06 0.0130 0 0 0 0
SC0162 SJ0162 SJ0692 38.80 0.0130 0 0 0 0
SC0163 SJ0163 SJ0164 225.97 0.0130 0 0 0 0
SC0164 SJ0164 SJ0358 255.41 0.0130 0 0 0 0
SC0165 SJ0165 SJ0166 290.63 0.0130 0 0 0 0
SC0166 SJ0166 SJ0351 403.63 0.0130 0 0 0 0
SC0167 SJ0167 SJ0168 191.83 0.0130 0 0 0 0
SC0168 SJ0168 SJ0178 248.96 0.0130 0 0 0 0
SC0169 SJ0169 SJ0170 63.38 0.0130 0 0 0 0
SC0170 SJ0170 SJ0337 172.10 0.0130 0 0 0 0
SC0171 SJ0171 SJ0172 205.20 0.0130 0 0 0 0
SC0172 SJ0172 SJ0313 110.36 0.0130 0 0 0 0
SC0173 SJ0173 SJ0174 61.57 0.0130 0 0 0 0
SC0174 SJ0174 SJ0484 78.36 0.0130 0 0 0 0
SC0175 SJ0175 SJ0176 209.38 0.0130 0 0 0 0
SC0176 SJ0176 SJ0342 146.92 0.0130 0 0 0 0
SC0177 SJ0177 SJ0178 479.41 0.0130 0 0 0 0
SC0178 SJ0178 SJ0668 479.83 0.0130 0 0 0 0
SC0179 SJ0179 SJ0180 150.45 0.0130 0 0 0 0
SC0180 SJ0180 SJ0818 1015.94 0.0130 0 0 0 0
SC0181 SJ0181 SJ0182 55.61 0.0130 0 0 0 0
SC0182 SJ0182 SJ1032 134.17 0.0130 0 0 0 0
SC0183 SJ0183 SJ0184 160.96 0.0130 0 0 0 0
SC0184 SJ0184 SJ0107 164.82 0.0130 0 0 0 0
SC0185 SJ0185 SJ0186 88.86 0.0130 0 0 0 0
SC0186 SJ0186 SJ0107 440.20 0.0130 0 0 0 0
SC0187 SJ0187 SJ0188 20.76 0.0130 0 0 0 0
SC0188 SJ0188 SJ0280 105.80 0.0130 0 0 0 0
SC0189 SJ0189 SJ0128 86.50 0.0130 0 0 0 0
SC0190 SJ0190 SJ0170 106.42 0.0130 0 0 0 0
SC0191 SJ0191 SJ0124 58.50 0.0130 0 0 0 0
SC0192 SJ0192 SJ0193 131.14 0.0130 0 0 0 0
SC0193 SJ0193 SJ0690 70.92 0.0130 0 0 0 0
SC0194 SJ0194 SJ0135 36.25 0.0130 0 0 0 0
SC0195 SJ0195 SJ0196 127.68 0.0130 0 0 0 0
SC0196 SJ0196 SJ0611 59.94 0.0130 0 0 0 0
SC0197 SJ0197 SJ0198 512.53 0.0130 0 0 0 0
SC0198 SJ0198 SJ0398 80.58 0.0130 0 0 0 0
SC0199 SJ0199 SJ0200 133.74 0.0130 0 0 0 0
SC0200 SJ0200 SJ0847 372.90 0.0130 0 0 0 0
SC0201 SJ0201 SJ0202 201.86 0.0130 0 0 0 0
SC0202 SJ0202 SJ0441 200.24 0.0130 0 0 0 0
SC0203 SJ0203 SJ0204 152.89 0.0130 0 0 0 0
SC0204 SJ0204 SJ0081 151.14 0.0130 0 0 0 0
SC0205 SJ0205 SJ0206 119.85 0.0130 0 0 0 0
SC0206 SJ0206 SJ0334 46.66 0.0130 0 0 0 0
SC0207 SJ0207 SJ0208 102.37 0.0130 0 0 0 0
SC0208 SJ0208 SJ0515 29.66 0.0130 0 0 0 0
SC0209 SJ0209 SJ0122 68.35 0.0130 0 0 0 0
SC0210 SJ0210 SJ0211 173.74 0.0130 0 0 0 0
SC0211 SJ0211 SJ0311 161.08 0.0130 0 0 0 0
SC0212 SJ0212 SJ0213 52.74 0.0130 0 0 0 0
SC0213 SJ0213 SJ0331 169.58 0.0130 0 0 0 0
SC0214 SJ0214 SJ0215 36.98 0.0130 0 0 0 0
SC0215 SJ0215 SJ0205 91.26 0.0130 0 0 0 0
SC0216 SJ0216 SJ0217 4.35 0.0130 0 0 0 0
SC0217 SJ0217 SJ0712 187.40 0.0130 0 0 0 0
SC0218 SJ0218 SJ0219 316.37 0.0130 0 0 0 0
SC0219 SJ0219 SJ0007 189.90 0.0130 0 0 0 0
SC0220 SJ0220 SJ0221 256.40 0.0130 0 0 0 0
SC0221 SJ0221 SJ0757 156.13 0.0130 0 0 0 0
SC0222 SJ0222 SJ0223 32.48 0.0130 0 0 0 0
SC0223 SJ0223 SJ0422 117.68 0.0130 0 0 0 0
SC0224 SJ0224 SJ0225 26.23 0.0130 0 0 0 0
SC0225 SJ0225 SJ0875 85.47 0.0130 0 0 0 0
SC0226 SJ0226 SJ0227 101.62 0.0130 0 0 0 0
SC0227 SJ0227 SJ0354 270.68 0.0130 0 0 0 0
SC0228 SJ0228 SJ0229 129.91 0.0130 0 0 0 0
SC0229 SJ0229 SJ0976 237.35 0.0130 0 0 0 0
SC0230 SJ0230 SJ0231 120.92 0.0130 0 0 0 0
SC0231 SJ0231 SJ0336 102.82 0.0130 0 0 0 0
SC0232 SJ0232 SJ0030 109.20 0.0130 0 0 0 0
SC0233 SJ0233 SJ0234 210.54 0.0130 0 0 0 0
SC0234 SJ0234 SJ0467 102.38 0.0130 0 0 0 0
SC0235 SJ0235 SJ0236 185.74 0.0130 0 0 0 0
SC0236 SJ0236 SJ0717 105.92 0.0130 0 0 0 0
SC0237 SJ0237 SJ0238 174.78 0.0130 0 0 0 0
SC0238 SJ0238 SJ0495 69.52 0.0130 0 0 0 0
SC0239 SJ0239 SJ0240 85.15 0.0130 0 0 0 0
SC0240 SJ0240 SJ0985 199.80 0.0130 0 0 0 0
SC0241 SJ0241 SJ1239 236.55 0.0130 0 0 0 0
SC0242 SJ0243 SJ0244 152.01 0.0130 0 0 0 0
SC0243 SJ0244 SJ1155 87.80 0.0130 0 0 0 0
SC0244 SJ0245 SJ0246 43.04 0.0130 0 0 0 0
SC0245 SJ0246 SJ0265 326.20 0.0130 0 0 0 0
SC0246 SJ0247 SJ0248 16.38 0.0130 0 0 0 0
SC0247 SJ0248 SJ0415 208.52 0.0130 0 0 0 0
SC0248 SJ0249 SJ0250 11.09 0.0130 0 0 0 0
SC0249 SJ0250 SJ1054 276.04 0.0130 0 0 0 0
SC0250 SJ0251 SJ0252 230.08 0.0130 0 0 0 0
SC0251 SJ0252 SJ0174 16.89 0.0130 0 0 0 0
SC0252 SJ0253 SJ0254 17.29 0.0130 0 0 0 0
SC0253 SJ0254 SJ0580 150.49 0.0130 0 0 0 0
SC0254 SJ0255 SJ0088 28.12 0.0130 0 0 0 0
SC0255 SJ0256 SJ0416 19.84 0.0130 0 0 0 0
SC0256 SJ0257 SJ0133 99.81 0.0130 0 0 0 0
SC0257 SJ0258 SJ0168 811.56 0.0130 0 0 0 0
SC0258 SJ0259 SJ0260 13.45 0.0130 0 0 0 0
SC0259 SJ0260 SJ0353 59.58 0.0130 0 0 0 0
SC0260 SJ0261 SJ0262 283.15 0.0130 0 0 0 0
SC0261 SJ0262 SJ0612 3098.17 0.0130 0 0 0 0
SC0262 SJ0263 SJ0264 389.27 0.0130 0 0 0 0
SC0263 SJ0264 SJ0099 372.67 0.0130 0 0 0 0
SC0264 SJ0265 SJ0471 127.15 0.0130 0 0 0 0
SC0265 SJ0266 SJ0267 128.74 0.0130 0 0 0 0
SC0266 SJ0267 SJ0615 523.37 0.0130 0 0 0 0
SC0267 SJ0268 SJ0269 122.65 0.0130 0 0 0 0
SC0268 SJ0269 SJ0096 329.05 0.0130 0 0 0 0
SC0269 SJ0270 SJ0271 72.47 0.0130 0 0 0 0
SC0270 SJ0271 SJ0395 232.44 0.0130 0 0 0 0
SC0271 SJ0272 SJ0273 202.74 0.0130 0 0 0 0
SC0272 SJ0273 SJ0610 162.50 0.0130 0 0 0 0
SC0273 SJ0274 SJ0275 134.59 0.0130 0 0 0 0
SC0274 SJ0275 SJ0696 7.42 0.0130 0 0 0 0
SC0275 SJ0276 SJ0246 162.81 0.0130 0 0 0 0
SC0276 SJ0277 SJ0190 202.07 0.0130 0 0 0 0
SC0277 SJ0278 SJ0279 170.79 0.0130 0 0 0 0
SC0278 SJ0279 SJ0509 68.64 0.0130 0 0 0 0
SC0279 SJ0280 SJ0986 204.74 0.0130 0 0 0 0
SC0280 SJ0281 SJ0282 93.85 0.0130 0 0 0 0
SC0281 SJ0282 SJ0453 26.09 0.0130 0 0 0 0
SC0282 SJ0283 SJ0284 85.40 0.0130 0 0 0 0
SC0283 SJ0284 SJ0592 116.36 0.0130 0 0 0 0
SC0284 SJ0285 SJ0286 31.45 0.0130 0 0 0 0
SC0285 SJ0286 SJ0556 113.33 0.0130 0 0 0 0
SC0286 SJ0287 SJ0288 649.56 0.0130 0 0 0 0
SC0287 SJ0288 SJ1239 63.11 0.0130 0 0 0 0
SC0288 SJ0289 SJ0290 142.87 0.0130 0 0 0 0
SC0289 SJ0290 SJ1105 131.27 0.0130 0 0 0 0
SC0290 SJ0291 SJ0292 71.23 0.0130 0 0 0 0
SC0291 SJ0292 SJ0823 163.67 0.0130 0 0 0 0
SC0292 SJ0293 SJ0158 68.54 0.0130 0 0 0 0
SC0293 SJ0294 SJ0139 58.86 0.0130 0 0 0 0
SC0294 SJ0295 SJ0296 176.95 0.0130 0 0 0 0
SC0295 SJ0296 SJ0652 146.42 0.0130 0 0 0 0
SC0296 SJ0297 SJ0298 21.71 0.0130 0 0 0 0
SC0297 SJ0298 SJ0779 130.55 0.0130 0 0 0 0
SC0298 SJ0299 SJ0300 80.62 0.0130 0 0 0 0
SC0299 SJ0300 SJ0320 69.23 0.0130 0 0 0 0
SC0300 SJ0301 SJ0302 1172.49 0.0130 0 0 0 0
SC0301 SJ0302 SJ0196 179.49 0.0130 0 0 0 0
SC0302 SJ0303 SJ0304 142.98 0.0130 0 0 0 0
SC0303 SJ0304 SJ0384 96.47 0.0130 0 0 0 0
SC0304 SJ0305 SJ0306 97.33 0.0130 0 0 0 0
SC0305 SJ0306 SJ0463 70.84 0.0130 0 0 0 0
SC0306 SJ0307 SJ0324 83.55 0.0130 0 0 0 0
SC0307 SJ0308 SJ0309 71.12 0.0130 0 0 0 0
SC0308 SJ0309 SJ0136 554.02 0.0130 0 0 0 0
SC0309 SJ0310 SJ0157 111.23 0.0130 0 0 0 0
SC0310 SJ0311 SJ0312 100.66 0.0130 0 0 0 0
SC0311 SJ0312 SJ0315 201.80 0.0130 0 0 0 0
SC0312 SJ0313 SJ0440 128.34 0.0130 0 0 0 0
SC0313 SJ0314 SJ0315 91.55 0.0130 0 0 0 0
SC0315 SJ0316 SJ0317 270.59 0.0130 0 0 0 0
SC0316 SJ0317 SJ0787 61.57 0.0130 0 0 0 0
SC0317 SJ0318 SJ0319 143.08 0.0130 0 0 0 0
SC0318 SJ0319 SJ0980 235.94 0.0130 0 0 0 0
SC0319 SJ0320 SJ0357 53.65 0.0130 0 0 0 0
SC0321 SJ0322 SJ0352 53.02 0.0130 0 0 0 0
SC0322 SJ0323 SJ0324 254.44 0.0130 0 0 0 0
SC0323 SJ0324 SJ0181 363.84 0.0130 0 0 0 0
SC0324 SJ0325 SJ0326 76.49 0.0130 0 0 0 0
SC0325 SJ0326 SJ0083 395.74 0.0130 0 0 0 0
SC0326 SJ0327 SJ0259 94.62 0.0130 0 0 0 0
SC0327 SJ0328 SJ0329 165.23 0.0130 0 0 0 0
SC0328 SJ0329 SJ0268 170.83 0.0130 0 0 0 0
SC0329 SJ0330 SJ0331 69.99 0.0130 0 0 0 0
SC0330 SJ0331 SJ0848 81.84 0.0130 0 0 0 0
SC0331 SJ0332 SJ0259 34.16 0.0130 0 0 0 0
SC0332 SJ0333 SJ0334 750.52 0.0130 0 0 0 0
SC0333 SJ0334 SJ0252 549.17 0.0130 0 0 0 0
SC0334 SJ0335 SJ0564 192.83 0.0130 0 0 0 0
SC0335 SJ0336 SJ0797 169.47 0.0130 0 0 0 0
SC0337 SJ0338 SJ0339 172.53 0.0130 0 0 0 0
SC0338 SJ0339 SJ0786 114.23 0.0130 0 0 0 0
SC0339 SJ0340 SJ0341 126.31 0.0130 0 0 0 0
SC0340 SJ0341 SJ0490 1682.33 0.0130 0 0 0 0
SC0341 SJ0342 SJ0343 343.58 0.0130 0 0 0 0
SC0342 SJ0343 SJ0184 305.23 0.0130 0 0 0 0
SC0344 SJ0345 SJ0863 92.96 0.0130 0 0 0 0
SC0345 SJ0346 SJ0347 27.94 0.0130 0 0 0 0
SC0346 SJ0347 SJ0738 65.68 0.0130 0 0 0 0
SC0347 SJ0348 SJ0319 170.36 0.0130 0 0 0 0
SC0348 SJ0349 SJ0350 221.15 0.0130 0 0 0 0
SC0349 SJ0350 SJ0567 14.70 0.0130 0 0 0 0
SC0350 SJ0351 SJ0352 488.50 0.0130 0 0 0 0
SC0352 SJ0353 SJ1072 18.63 0.0130 0 0 0 0
SC0353 SJ0354 SJ0077 40.21 0.0130 0 0 0 0
SC0354 SJ0355 SJ0086 526.70 0.0130 0 0 0 0
SC0355 SJ0356 SJ0357 71.80 0.0130 0 0 0 0
SC0356 SJ0357 SJ0855 81.52 0.0130 0 0 0 0
SC0357 SJ0358 SJ0431 979.75 0.0130 0 0 0 0
SC0358 SJ0359 SJ0360 70.31 0.0130 0 0 0 0
SC0359 SJ0360 SJ0597 87.68 0.0130 0 0 0 0
SC0360 SJ0361 SJ0362 52.65 0.0130 0 0 0 0
SC0361 SJ0362 SJ0358 200.61 0.0130 0 0 0 0
SC0362 SJ0363 SJ0132 296.36 0.0130 0 0 0 0
SC0363 SJ0364 SJ0365 59.76 0.0130 0 0 0 0
SC0364 SJ0365 SJ0344 236.19 0.0130 0 0 0 0
SC0365 SJ0366 SJ0367 206.00 0.0130 0 0 0 0
SC0366 SJ0367 SJ1005 36.70 0.0130 0 0 0 0
SC0367 SJ0368 SJ0369 17.01 0.0130 0 0 0 0
SC0368 SJ0369 SJ0568 314.77 0.0130 0 0 0 0
SC0369 SJ0370 SJ0371 117.02 0.0130 0 0 0 0
SC0370 SJ0371 SJ0432 100.64 0.0130 0 0 0 0
SC0371 SJ0372 SJ0373 102.74 0.0130 0 0 0 0
SC0372 SJ0373 SJ0812 234.06 0.0130 0 0 0 0
SC0373 SJ0374 SJ0211 6.94 0.0130 0 0 0 0
SC0374 SJ0375 SJ0376 63.82 0.0130 0 0 0 0
SC0376 SJ0377 SJ0378 347.14 0.0130 0 0 0 0
SC0377 SJ0378 SJ0179 166.85 0.0130 0 0 0 0
SC0378 SJ0379 SJ0360 249.53 0.0130 0 0 0 0
SC0379 SJ0380 SJ0381 131.43 0.0130 0 0 0 0
SC0380 SJ0381 SJ0310 219.10 0.0130 0 0 0 0
SC0381 SJ0382 SJ0383 35.44 0.0130 0 0 0 0
SC0382 SJ0383 SJ0842 358.68 0.0130 0 0 0 0
SC0383 SJ0384 SJ1049 121.94 0.0130 0 0 0 0
SC0384 SJ0385 SJ0115 217.26 0.0130 0 0 0 0
SC0385 SJ0386 SJ0387 154.72 0.0130 0 0 0 0
SC0386 SJ0387 SJ0232 20.55 0.0130 0 0 0 0
SC0387 SJ0388 SJ0389 117.93 0.0130 0 0 0 0
SC0388 SJ0389 SJ0138 122.45 0.0130 0 0 0 0
SC0389 SJ0390 SJ0391 176.61 0.0130 0 0 0 0
SC0390 SJ0391 SJ0195 162.29 0.0130 0 0 0 0
SC0391 SJ0392 SJ0393 108.28 0.0130 0 0 0 0
SC0392 SJ0393 SJ0911 178.37 0.0130 0 0 0 0
SC0393 SJ0394 SJ0179 105.77 0.0130 0 0 0 0
SC0394 SJ0395 SJ0396 277.10 0.0130 0 0 0 0
SC0395 SJ0396 SJ0033 590.55 0.0130 0 0 0 0
SC0396 SJ0397 SJ0385 508.59 0.0130 0 0 0 0
SC0397 SJ0398 SJ0399 195.93 0.0130 0 0 0 0
SC0398 SJ0399 SJ0646 42.79 0.0130 0 0 0 0
SC0399 SJ0400 SJ0401 157.86 0.0130 0 0 0 0
SC0400 SJ0401 SJ0654 231.05 0.0130 0 0 0 0
SC0401 SJ0402 SJ0403 497.49 0.0130 0 0 0 0
SC0402 SJ0403 SJ0438 149.89 0.0130 0 0 0 0
SC0403 SJ0404 SJ0405 110.12 0.0130 0 0 0 0
SC0404 SJ0405 SJ0626 92.55 0.0130 0 0 0 0
SC0405 SJ0406 SJ0407 167.05 0.0130 0 0 0 0
SC0406 SJ0407 SJ0313 66.18 0.0130 0 0 0 0
SC0407 SJ0408 SJ0186 247.90 0.0130 0 0 0 0
SC0408 SJ0409 SJ0410 229.73 0.0130 0 0 0 0
SC0409 SJ0410 SJ0504 210.82 0.0130 0 0 0 0
SC0410 SJ0411 SJ0185 133.80 0.0130 0 0 0 0
SC0411 SJ0412 SJ0109 41.94 0.0130 0 0 0 0
SC0412 SJ0413 SJ0414 131.45 0.0130 0 0 0 0
SC0413 SJ0414 SJ0646 25.35 0.0130 0 0 0 0
SC0414 SJ0415 SJ0416 204.16 0.0130 0 0 0 0
SC0415 SJ0416 SJ0931 145.94 0.0130 0 0 0 0
SC0416 SJ0417 SJ0418 155.49 0.0130 0 0 0 0
SC0417 SJ0418 SJ0389 333.64 0.0130 0 0 0 0
SC0418 SJ0419 SJ0103 149.35 0.0130 0 0 0 0
SC0419 SJ0420 SJ0421 47.63 0.0130 0 0 0 0
SC0420 SJ0421 SJ0545 47.28 0.0130 0 0 0 0
SC0421 SJ0422 SJ0423 67.59 0.0130 0 0 0 0
SC0422 SJ0423 SJ1055 133.24 0.0130 0 0 0 0
SC0423 SJ0424 SJ0425 143.14 0.0130 0 0 0 0
SC0424 SJ0425 SJ0610 59.40 0.0130 0 0 0 0
SC0425 SJ0426 SJ0392 66.76 0.0130 0 0 0 0
SC0426 SJ0427 SJ0428 40.05 0.0130 0 0 0 0
SC0427 SJ0428 SJ0478 8.91 0.0130 0 0 0 0
SC0428 SJ0429 SJ0430 159.25 0.0130 0 0 0 0
SC0429 SJ0430 SJ0559 740.81 0.0130 0 0 0 0
SC0430 SJ0431 SJ0631 585.43 0.0130 0 0 0 0
SC0431 SJ0432 SJ0460 47.09 0.0130 0 0 0 0
SC0432 SJ0433 SJ0306 124.77 0.0130 0 0 0 0
SC0433 SJ0434 SJ0435 47.60 0.0130 0 0 0 0
SC0434 SJ0435 SJ0832 114.64 0.0130 0 0 0 0
SC0435 SJ0436 SJ0378 76.54 0.0130 0 0 0 0
SC0436 SJ0437 SJ0340 26.57 0.0130 0 0 0 0
SC0437 SJ0438 SJ0439 109.37 0.0130 0 0 0 0
SC0438 SJ0439 SJ0602 202.08 0.0130 0 0 0 0
SC0439 SJ0440 SJ0441 82.63 0.0130 0 0 0 0
SC0440 SJ0441 SJ0563 348.63 0.0130 0 0 0 0
SC0441 SJ0442 SJ0443 126.83 0.0130 0 0 0 0
SC0442 SJ0443 SJ0953 190.92 0.0130 0 0 0 0
SC0443 SJ0444 SJ0207 166.03 0.0130 0 0 0 0
SC0444 SJ0445 SJ0237 289.59 0.0130 0 0 0 0
SC0445 SJ0446 SJ0447 61.78 0.0130 0 0 0 0
SC0446 SJ0447 SJ0239 81.26 0.0130 0 0 0 0
SC0447 SJ0448 SJ0449 134.10 0.0130 0 0 0 0
SC0448 SJ0449 SJ0399 91.27 0.0130 0 0 0 0
SC0449 SJ0450 SJ0451 23.63 0.0130 0 0 0 0
SC0450 SJ0451 SJ0461 52.10 0.0130 0 0 0 0
SC0451 SJ0452 SJ0453 54.96 0.0130 0 0 0 0
SC0452 SJ0453 SJ0092 177.74 0.0130 0 0 0 0
SC0453 SJ0454 SJ0455 42.94 0.0130 0 0 0 0
SC0454 SJ0455 SJ0024 38.49 0.0130 0 0 0 0
SC0455 SJ0456 SJ0457 284.42 0.0130 0 0 0 0
SC0456 SJ0457 SJ0124 139.00 0.0130 0 0 0 0
SC0457 SJ0458 SJ0459 238.26 0.0130 0 0 0 0
SC0458 SJ0459 SJ0347 162.58 0.0130 0 0 0 0
SC0459 SJ0460 SJ0557 46.60 0.0130 0 0 0 0
SC0460 SJ0461 SJ0817 154.20 0.0130 0 0 0 0
SC0461 SJ0462 SJ0117 219.57 0.0130 0 0 0 0
SC0462 SJ0463 SJ0464 222.92 0.0130 0 0 0 0
SC0463 SJ0464 SJ0759 266.32 0.0130 0 0 0 0
SC0464 SJ0465 SJ0466 101.44 0.0130 0 0 0 0
SC0465 SJ0466 SJ0222 36.92 0.0130 0 0 0 0
SC0466 SJ0467 SJ0973 144.44 0.0130 0 0 0 0
SC0467 SJ0468 SJ0469 316.72 0.0130 0 0 0 0
SC0468 SJ0469 SJ0988 183.33 0.0130 0 0 0 0
SC0469 SJ0470 SJ0031 41.12 0.0130 0 0 0 0
SC0470 SJ0471 SJ0472 93.59 0.0130 0 0 0 0
SC0471 SJ0472 SJ0728 99.43 0.0130 0 0 0 0
SC0472 SJ0473 SJ0474 86.15 0.0130 0 0 0 0
SC0473 SJ0474 SJ0691 44.75 0.0130 0 0 0 0
SC0474 SJ0475 SJ0476 57.47 0.0130 0 0 0 0
SC0475 SJ0476 SJ0074 110.61 0.0130 0 0 0 0
SC0478 SJ0479 SJ0390 130.64 0.0130 0 0 0 0
SC0479 SJ0480 SJ0342 279.87 0.0130 0 0 0 0
SC0480 SJ0481 SJ0482 45.86 0.0130 0 0 0 0
SC0481 SJ0482 SJ0398 109.52 0.0130 0 0 0 0
SC0482 SJ0483 SJ0484 270.94 0.0130 0 0 0 0
SC0483 SJ0484 SJ0851 158.35 0.0130 0 0 0 0
SC0484 SJ0485 SJ0486 103.42 0.0130 0 0 0 0
SC0486 SJ0487 SJ0482 80.23 0.0130 0 0 0 0
SC0487 SJ0488 SJ0489 197.56 0.0130 0 0 0 0
SC0488 SJ0489 SJ0682 222.38 0.0130 0 0 0 0
SC0489 SJ0490 SJ0466 272.48 0.0130 0 0 0 0
SC0490 SJ0491 SJ0420 73.53 0.0130 0 0 0 0
SC0491 SJ0492 SJ0095 241.50 0.0130 0 0 0 0
SC0492 SJ0493 SJ0302 29.69 0.0130 0 0 0 0
SC0493 SJ0494 SJ0034 122.03 0.0130 0 0 0 0
SC0494 SJ0495 SJ0233 139.56 0.0130 0 0 0 0
SC0495 SJ0496 SJ0223 84.41 0.0130 0 0 0 0
SC0496 SJ0497 SJ0059 122.18 0.0130 0 0 0 0
SC0497 SJ0498 SJ0120 70.90 0.0130 0 0 0 0
SC0498 SJ0499 SJ0312 331.84 0.0130 0 0 0 0
SC0499 SJ0500 SJ0501 218.55 0.0130 0 0 0 0
SC0500 SJ0501 SJ0677 825.33 0.0130 0 0 0 0
SC0501 SJ0502 SJ0053 147.44 0.0130 0 0 0 0
SC0502 SJ0503 SJ0504 88.06 0.0130 0 0 0 0
SC0503 SJ0504 SJ1015 58.06 0.0130 0 0 0 0
SC0504 SJ0505 SJ0506 436.43 0.0130 0 0 0 0
SC0505 SJ0506 SJ0502 44.97 0.0130 0 0 0 0
SC0506 SJ0507 SJ0508 111.49 0.0130 0 0 0 0
SC0507 SJ0508 SJ1055 162.53 0.0130 0 0 0 0
SC0508 SJ0509 SJ0510 190.04 0.0130 0 0 0 0
SC0509 SJ0510 SJ0529 237.36 0.0130 0 0 0 0
SC0510 SJ0511 SJ0457 117.66 0.0130 0 0 0 0
SC0511 SJ0512 SJ0513 644.72 0.0130 0 0 0 0
SC0512 SJ0513 SJ0501 23.91 0.0130 0 0 0 0
SC0513 SJ0514 SJ0515 11.92 0.0130 0 0 0 0
SC0514 SJ0515 SJ0731 126.69 0.0130 0 0 0 0
SC0515 SJ0516 SJ0517 113.18 0.0130 0 0 0 0
SC0516 SJ0517 SJ0970 98.74 0.0130 0 0 0 0
SC0517 SJ0518 SJ0519 343.38 0.0130 0 0 0 0
SC0518 SJ0519 SJ0340 6.79 0.0130 0 0 0 0
SC0519 SJ0520 SJ0138 234.92 0.0130 0 0 0 0
SC0520 SJ0521 SJ0522 138.18 0.0130 0 0 0 0
SC0521 SJ0522 SJ0404 9.91 0.0130 0 0 0 0
SC0522 SJ0523 SJ0524 90.38 0.0130 0 0 0 0
SC0523 SJ0524 SJ1087 66.22 0.0130 0 0 0 0
SC0524 SJ0525 SJ0683 169.04 0.0130 0 0 0 0
SC0525 SJ0526 SJ0052 178.25 0.0130 0 0 0 0
SC0526 SJ0527 SJ0528 173.12 0.0130 0 0 0 0
SC0527 SJ0528 SJ0188 114.19 0.0130 0 0 0 0
SC0528 SJ0529 SJ0530 415.63 0.0130 0 0 0 0
SC0529 SJ0530 SJ0439 378.91 0.0130 0 0 0 0
SC0530 SJ0531 SJ0448 10.75 0.0130 0 0 0 0
SC0531 SJ0532 SJ0533 121.83 0.0130 0 0 0 0
SC0532 SJ0533 SJ0811 141.20 0.0130 0 0 0 0
SC0533 SJ0534 SJ0535 22.62 0.0130 0 0 0 0
SC0534 SJ0535 SJ0755 112.56 0.0130 0 0 0 0
SC0535 SJ0536 SJ0537 149.23 0.0130 0 0 0 0
SC0536 SJ0537 SJ0672 130.33 0.0130 0 0 0 0
SC0537 SJ0538 SJ0405 274.82 0.0130 0 0 0 0
SC0538 SJ0539 SJ0540 112.04 0.0130 0 0 0 0
SC0539 SJ0540 SJ0824 65.23 0.0130 0 0 0 0
SC0540 SJ0541 SJ0542 298.65 0.0130 0 0 0 0
SC0541 SJ0542 SJ0185 859.43 0.0130 0 0 0 0
SC0542 SJ0543 SJ0544 167.50 0.0130 0 0 0 0
SC0543 SJ0544 SJ0686 104.16 0.0130 0 0 0 0
SC0544 SJ0545 SJ0546 98.16 0.0130 0 0 0 0
SC0546 SJ0547 SJ0238 142.37 0.0130 0 0 0 0
SC0547 SJ0548 SJ0158 126.45 0.0130 0 0 0 0
SC0548 SJ0549 SJ0550 264.50 0.0130 0 0 0 0
SC0549 SJ0550 SJ0200 39.60 0.0130 0 0 0 0
SC0550 SJ0551 SJ0229 11.41 0.0130 0 0 0 0
SC0551 SJ0552 SJ0553 55.62 0.0130 0 0 0 0
SC0552 SJ0553 SJ0844 811.95 0.0130 0 0 0 0
SC0553 SJ0554 SJ0543 22.90 0.0130 0 0 0 0
SC0554 SJ0555 SJ0134 552.45 0.0130 0 0 0 0
SC0555 SJ0556 SJ0557 258.13 0.0130 0 0 0 0
SC0556 SJ0557 SJ1002 34.91 0.0130 0 0 0 0
SC0557 SJ0558 SJ0344 22.06 0.0130 0 0 0 0
SC0558 SJ0559 SJ0560 123.73 0.0130 0 0 0 0
SC0559 SJ0560 SJ0278 178.62 0.0130 0 0 0 0
SC0560 SJ0561 SJ0456 157.66 0.0130 0 0 0 0
SC0561 SJ0562 SJ0563 122.25 0.0130 0 0 0 0
SC0562 SJ0563 SJ0294 136.89 0.0130 0 0 0 0
SC0563 SJ0564 SJ0051 80.52 0.0130 0 0 0 0
SC0564 SJ0565 SJ0566 330.87 0.0130 0 0 0 0
SC0565 SJ0566 SJ0633 275.04 0.0130 0 0 0 0
SC0566 SJ0567 SJ0887 135.62 0.0130 0 0 0 0
SC0567 SJ0568 SJ0674 50.75 0.0130 0 0 0 0
SC0568 SJ0569 SJ0570 572.91 0.0130 0 0 0 0
SC0569 SJ0570 SJ0333 531.48 0.0130 0 0 0 0
SC0570 SJ0571 SJ0572 303.08 0.0130 0 0 0 0
SC0571 SJ0572 SJ1155 101.85 0.0130 0 0 0 0
SC0572 SJ0573 SJ0574 4.44 0.0130 0 0 0 0
SC0573 SJ0574 SJ0878 16.59 0.0130 0 0 0 0
SC0574 SJ0575 SJ0576 72.78 0.0130 0 0 0 0
SC0575 SJ0576 SJ0022 177.49 0.0130 0 0 0 0
SC0576 SJ0577 SJ0094 157.51 0.0130 0 0 0 0
SC0577 SJ0578 SJ0579 140.41 0.0130 0 0 0 0
SC0578 SJ0579 SJ0166 89.59 0.0130 0 0 0 0
SC0579 SJ0580 SJ0305 31.72 0.0130 0 0 0 0
SC0580 SJ0581 SJ0582 467.50 0.0130 0 0 0 0
SC0581 SJ0582 SJ0772 47.45 0.0130 0 0 0 0
SC0582 SJ0583 SJ0387 110.19 0.0130 0 0 0 0
SC0583 SJ0584 SJ0585 161.97 0.0130 0 0 0 0
SC0584 SJ0585 SJ0076 160.72 0.0130 0 0 0 0
SC0585 SJ0586 SJ0271 627.96 0.0130 0 0 0 0
SC0586 SJ0587 SJ0182 794.24 0.0130 0 0 0 0
SC0587 SJ0588 SJ0236 111.56 0.0130 0 0 0 0
SC0588 SJ0589 SJ0590 118.60 0.0130 0 0 0 0
SC0589 SJ0590 SJ0953 121.17 0.0130 0 0 0 0
SC0590 SJ0591 SJ0592 236.93 0.0130 0 0 0 0
SC0591 SJ0592 SJ0476 78.61 0.0130 0 0 0 0
SC0592 SJ0593 SJ0467 235.83 0.0130 0 0 0 0
SC0593 SJ0594 SJ0595 190.78 0.0130 0 0 0 0
SC0594 SJ0595 SJ0833 36.75 0.0130 0 0 0 0
SC0595 SJ0596 SJ0597 89.46 0.0130 0 0 0 0
SC0596 SJ0597 SJ0595 121.30 0.0130 0 0 0 0
SC0597 SJ0598 SJ0599 37.20 0.0130 0 0 0 0
SC0598 SJ0599 SJ0202 54.26 0.0130 0 0 0 0
SC0599 SJ0600 SJ0601 11.51 0.0130 0 0 0 0
SC0600 SJ0601 SJ0213 91.93 0.0130 0 0 0 0
SC0601 SJ0602 SJ0120 64.91 0.0130 0 0 0 0
SC0602 SJ0603 SJ0390 156.65 0.0130 0 0 0 0
SC0603 SJ0604 SJ0605 99.34 0.0130 0 0 0 0
SC0604 SJ0605 SJ0061 360.10 0.0130 0 0 0 0
SC0605 SJ0606 SJ0254 154.54 0.0130 0 0 0 0
SC0606 SJ0607 SJ0608 171.83 0.0130 0 0 0 0
SC0607 SJ0608 SJ0740 96.17 0.0130 0 0 0 0
SC0608 SJ0609 SJ0322 44.37 0.0130 0 0 0 0
SC0609 SJ0610 SJ0573 283.50 0.0130 0 0 0 0
SC0610 SJ0611 SJ0189 350.05 0.0130 0 0 0 0
SC0611 SJ0612 SJ0613 214.71 0.0130 0 0 0 0
SC0612 SJ0613 SJ0370 855.79 0.0130 0 0 0 0
SC0613 SJ0614 SJ0300 165.92 0.0130 0 0 0 0
SC0614 SJ0615 SJ0616 350.16 0.0130 0 0 0 0
SC0615 SJ0616 SJ0662 284.23 0.0130 0 0 0 0
SC0616 SJ0617 SJ0262 886.34 0.0130 0 0 0 0
SC0617 SJ0618 SJ0619 186.66 0.0130 0 0 0 0
SC0618 SJ0619 SJ0937 219.24 0.0130 0 0 0 0
SC0619 SJ0620 SJ0200 220.48 0.0130 0 0 0 0
SC0620 SJ0621 SJ0622 52.98 0.0130 0 0 0 0
SC0621 SJ0622 SJ0777 87.10 0.0130 0 0 0 0
SC0622 SJ0623 SJ0624 553.62 0.0130 0 0 0 0
SC0623 SJ0624 SJ0301 127.65 0.0130 0 0 0 0
SC0624 SJ0625 SJ0626 38.11 0.0130 0 0 0 0
SC0625 SJ0626 SJ0397 148.34 0.0130 0 0 0 0
SC0626 SJ0627 SJ0628 285.86 0.0130 0 0 0 0
SC0627 SJ0628 SJ0863 81.71 0.0130 0 0 0 0
SC0628 SJ0629 SJ0630 281.42 0.0130 0 0 0 0
SC0629 SJ0630 SJ0169 84.02 0.0130 0 0 0 0
SC0630 SJ0631 SJ0148 276.54 0.0130 0 0 0 0
SC0631 SJ0632 SJ0633 32.62 0.0130 0 0 0 0
SC0632 SJ0633 SJ0960 357.12 0.0130 0 0 0 0
SC0633 SJ0634 SJ0015 179.55 0.0130 0 0 0 0
SC0634 SJ0635 SJ0636 140.86 0.0130 0 0 0 0
SC0635 SJ0636 SJ0143 166.57 0.0130 0 0 0 0
SC0636 SJ0637 SJ0318 109.25 0.0130 0 0 0 0
SC0637 SJ0638 SJ0496 117.77 0.0130 0 0 0 0
SC0638 SJ0639 SJ0640 350.64 0.0130 0 0 0 0
SC0640 SJ0641 SJ0642 204.71 0.0130 0 0 0 0
SC0641 SJ0642 SJ0548 153.89 0.0130 0 0 0 0
SC0642 SJ0643 SJ0421 129.52 0.0130 0 0 0 0
SC0643 SJ0644 SJ0172 177.03 0.0130 0 0 0 0
SC0644 SJ0645 SJ0039 328.93 0.0130 0 0 0 0
SC0645 SJ0646 SJ0851 542.39 0.0130 0 0 0 0
SC0646 SJ0647 SJ0542 65.31 0.0130 0 0 0 0
SC0647 SJ0648 SJ0649 130.86 0.0130 0 0 0 0
SC0648 SJ0649 SJ0298 156.49 0.0130 0 0 0 0
SC0649 SJ0650 SJ0651 151.07 0.0130 0 0 0 0
SC0650 SJ0651 SJ0695 65.46 0.0130 0 0 0 0
SC0651 SJ0652 SJ0009 139.22 0.0130 0 0 0 0
SC0652 SJ0653 SJ0025 354.03 0.0130 0 0 0 0
SC0653 SJ0654 SJ0655 558.90 0.0130 0 0 0 0
SC0654 SJ0655 SJ0156 435.54 0.0130 0 0 0 0
SC0655 SJ0656 SJ0657 30.45 0.0130 0 0 0 0
SC0656 SJ0657 SJ0206 91.10 0.0130 0 0 0 0
SC0657 SJ0658 SJ0659 130.95 0.0130 0 0 0 0
SC0658 SJ0659 SJ0605 226.16 0.0130 0 0 0 0
SC0659 SJ0660 SJ0661 155.28 0.0130 0 0 0 0
SC0660 SJ0661 SJ0418 98.37 0.0130 0 0 0 0
SC0661 SJ0662 SJ0008 223.44 0.0130 0 0 0 0
SC0662 SJ0663 SJ0469 123.55 0.0130 0 0 0 0
SC0663 SJ0664 SJ0665 85.02 0.0130 0 0 0 0
SC0664 SJ0665 SJ0917 35.54 0.0130 0 0 0 0
SC0665 SJ0666 SJ0667 262.19 0.0130 0 0 0 0
SC0666 SJ0667 SJ0131 185.52 0.0130 0 0 0 0
SC0667 SJ0668 SJ0541 71.13 0.0130 0 0 0 0
SC0668 SJ0669 SJ0058 499.90 0.0130 0 0 0 0
SC0669 SJ0670 SJ0671 170.30 0.0130 0 0 0 0
SC0670 SJ0671 SJ0549 156.65 0.0130 0 0 0 0
SC0671 SJ0672 SJ1181 78.18 0.0130 0 0 0 0
SC0672 SJ0673 SJ0447 71.13 0.0130 0 0 0 0
SC0673 SJ0674 SJ0803 322.06 0.0130 0 0 0 0
SC0674 SJ0675 SJ0640 77.09 0.0130 0 0 0 0
SC0675 SJ0676 SJ0528 215.16 0.0130 0 0 0 0
SC0676 SJ0677 SJ0547 441.84 0.0130 0 0 0 0
SC0677 SJ0678 SJ0679 681.44 0.0130 0 0 0 0
SC0678 SJ0679 SJ0743 99.82 0.0130 0 0 0 0
SC0679 SJ0680 SJ0681 206.07 0.0130 0 0 0 0
SC0680 SJ0681 SJ0205 65.66 0.0130 0 0 0 0
SC0681 SJ0682 SJ0835 455.20 0.0130 0 0 0 0
SC0682 SJ0683 SJ0507 105.42 0.0130 0 0 0 0
SC0685 SJ0686 SJ0927 93.06 0.0130 0 0 0 0
SC0686 SJ0687 SJ0095 215.26 0.0130 0 0 0 0
SC0687 SJ0688 SJ0461 120.01 0.0130 0 0 0 0
SC0688 SJ0689 SJ0690 149.27 0.0130 0 0 0 0
SC0689 SJ0690 SJ0065 96.37 0.0130 0 0 0 0
SC0690 SJ0691 SJ1027 380.50 0.0130 0 0 0 0
SC0691 SJ0692 SJ0141 201.64 0.0130 0 0 0 0
SC0692 SJ0693 SJ0106 12.01 0.0130 0 0 0 0
SC0693 SJ0694 SJ0695 86.10 0.0130 0 0 0 0
SC0694 SJ0695 SJ0547 68.99 0.0130 0 0 0 0
SC0695 SJ0696 SJ0489 44.84 0.0130 0 0 0 0
SC0696 SJ0697 SJ0369 124.89 0.0130 0 0 0 0
SC0697 SJ0698 SJ0224 105.15 0.0130 0 0 0 0
SC0698 SJ0699 SJ0401 120.16 0.0130 0 0 0 0
SC0699 SJ0700 SJ0635 194.82 0.0130 0 0 0 0
SC0700 SJ0701 SJ0590 6.26 0.0130 0 0 0 0
SC0701 SJ0702 SJ0703 199.77 0.0130 0 0 0 0
SC0702 SJ0703 SJ0314 116.95 0.0130 0 0 0 0
SC0703 SJ0704 SJ0451 185.15 0.0130 0 0 0 0
SC0704 SJ0705 SJ0706 354.80 0.0130 0 0 0 0
SC0705 SJ0706 SJ1039 83.84 0.0130 0 0 0 0
SC0706 SJ0707 SJ0272 308.60 0.0130 0 0 0 0
SC0707 SJ0708 SJ0382 984.60 0.0130 0 0 0 0
SC0708 SJ0709 SJ0274 58.82 0.0130 0 0 0 0
SC0709 SJ0710 SJ0711 194.38 0.0130 0 0 0 0
SC0710 SJ0711 SJ0650 130.32 0.0130 0 0 0 0
SC0711 SJ0712 SJ0062 199.57 0.0130 0 0 0 0
SC0712 SJ0713 SJ0574 68.05 0.0130 0 0 0 0
SC0713 SJ0714 SJ0160 231.76 0.0130 0 0 0 0
SC0714 SJ0715 SJ0181 37.65 0.0130 0 0 0 0
SC0715 SJ0716 SJ0029 235.78 0.0130 0 0 0 0
SC0716 SJ0717 SJ0658 75.40 0.0130 0 0 0 0
SC0717 SJ0718 SJ0719 142.57 0.0130 0 0 0 0
SC0718 SJ0719 SJ0291 204.66 0.0130 0 0 0 0
SC0719 SJ0720 SJ0721 118.81 0.0130 0 0 0 0
SC0720 SJ0721 SJ0799 272.16 0.0130 0 0 0 0
SC0721 SJ0722 SJ0046 69.53 0.0130 0 0 0 0
SC0722 SJ0723 SJ0724 114.22 0.0130 0 0 0 0
SC0723 SJ0724 SJ1074 68.37 0.0130 0 0 0 0
SC0724 SJ0725 SJ0316 203.91 0.0130 0 0 0 0
SC0725 SJ0726 SJ0727 28.38 0.0130 0 0 0 0
SC0726 SJ0727 SJ0523 125.83 0.0130 0 0 0 0
SC0727 SJ0728 SJ0470 75.26 0.0130 0 0 0 0
SC0729 SJ0730 SJ0440 66.82 0.0130 0 0 0 0
SC0730 SJ0731 SJ0224 61.82 0.0130 0 0 0 0
SC0731 SJ0732 SJ0643 52.86 0.0130 0 0 0 0
SC0732 SJ0733 SJ0617 12.21 0.0130 0 0 0 0
SC0733 SJ0734 SJ0046 58.56 0.0130 0 0 0 0
SC0734 SJ0735 SJ0736 136.84 0.0130 0 0 0 0
SC0735 SJ0736 SJ0908 51.30 0.0130 0 0 0 0
SC0736 SJ0737 SJ0361 153.17 0.0130 0 0 0 0
SC0737 SJ0738 SJ0783 61.95 0.0130 0 0 0 0
SC0738 SJ0739 SJ0477 11.67 0.0130 0 0 0 0
SC0739 SJ0740 SJ0287 156.09 0.0130 0 0 0 0
SC0740 SJ0741 SJ0624 242.43 0.0130 0 0 0 0
SC0741 SJ0742 SJ0743 428.21 0.0130 0 0 0 0
SC0742 SJ0743 SJ0769 210.48 0.0130 0 0 0 0
SC0743 SJ0744 SJ0745 102.33 0.0130 0 0 0 0
SC0744 SJ0745 SJ0101 1582.21 0.0130 0 0 0 0
SC0745 SJ0746 SJ0203 65.56 0.0130 0 0 0 0
SC0746 SJ0747 SJ0309 26.92 0.0130 0 0 0 0
SC0749 SJ0750 SJ0049 165.01 0.0130 0 0 0 0
SC0750 SJ0751 SJ0317 107.73 0.0130 0 0 0 0
SC0751 SJ0752 SJ0601 172.29 0.0130 0 0 0 0
SC0752 SJ0753 SJ0818 277.62 0.0130 0 0 0 0
SC0753 SJ0754 SJ0755 116.87 0.0130 0 0 0 0
SC0754 SJ0755 SJ0435 218.47 0.0130 0 0 0 0
SC0755 SJ0756 SJ0757 29.22 0.0130 0 0 0 0
SC0756 SJ0757 SJ0512 93.76 0.0130 0 0 0 0
SC0757 SJ0758 SJ0102 777.51 0.0130 0 0 0 0
SC0758 SJ0759 SJ0100 123.23 0.0130 0 0 0 0
SC0760 SJ0761 SJ0365 212.48 0.0130 0 0 0 0
SC0761 SJ0762 SJ0294 661.85 0.0130 0 0 0 0
SC0762 SJ0763 SJ0764 361.36 0.0130 0 0 0 0
SC0763 SJ0764 SJ0004 135.90 0.0130 0 0 0 0
SC0764 SJ0765 SJ0706 167.92 0.0130 0 0 0 0
SC0765 SJ0766 SJ0081 382.87 0.0130 0 0 0 0
SC0766 SJ0767 SJ0519 977.20 0.0130 0 0 0 0
SC0767 SJ0768 SJ0769 56.08 0.0130 0 0 0 0
SC0768 SJ0769 SJ0643 223.81 0.0130 0 0 0 0
SC0769 SJ0770 SJ0019 69.48 0.0130 0 0 0 0
SC0770 SJ0771 SJ0149 213.76 0.0130 0 0 0 0
SC0771 SJ0772 SJ0773 101.17 0.0130 0 0 0 0
SC0772 SJ0773 SJ0393 21.73 0.0130 0 0 0 0
SC0773 SJ0774 SJ0775 115.29 0.0130 0 0 0 0
SC0774 SJ0775 SJ1054 120.29 0.0130 0 0 0 0
SC0775 SJ0776 SJ0382 129.23 0.0130 0 0 0 0
SC0776 SJ0777 SJ0373 209.05 0.0130 0 0 0 0
SC0777 SJ0778 SJ0779 194.30 0.0130 0 0 0 0
SC0778 SJ0779 SJ0819 19.63 0.0130 0 0 0 0
SC0779 SJ0780 SJ0218 293.66 0.0130 0 0 0 0
SC0780 SJ0781 SJ0782 555.95 0.0130 0 0 0 0
SC0781 SJ0782 SJ0291 416.74 0.0130 0 0 0 0
SC0782 SJ0783 SJ0264 171.87 0.0130 0 0 0 0
SC0783 SJ0784 SJ0125 452.55 0.0130 0 0 0 0
SC0784 SJ0785 SJ0023 73.23 0.0130 0 0 0 0
SC0785 SJ0786 SJ0030 60.25 0.0130 0 0 0 0
SC0786 SJ0787 SJ0753 109.56 0.0130 0 0 0 0
SC0787 SJ0788 SJ0789 259.68 0.0130 0 0 0 0
SC0788 SJ0789 SJ0838 29.70 0.0130 0 0 0 0
SC0789 SJ0790 SJ0577 163.50 0.0130 0 0 0 0
SC0790 SJ0791 SJ0534 86.32 0.0130 0 0 0 0
SC0791 SJ0792 SJ0304 90.58 0.0130 0 0 0 0
SC0792 SJ0793 SJ0523 314.86 0.0130 0 0 0 0
SC0793 SJ0794 SJ0148 999.27 0.0130 0 0 0 0
SC0794 SJ0795 SJ0671 14.34 0.0130 0 0 0 0
SC0795 SJ0796 SJ0797 96.59 0.0130 0 0 0 0
SC0796 SJ0797 SJ0622 93.72 0.0130 0 0 0 0
SC0797 SJ0798 SJ0038 114.76 0.0130 0 0 0 0
SC0798 SJ0799 SJ0140 236.56 0.0130 0 0 0 0
SC0799 SJ0800 SJ0801 212.38 0.0130 0 0 0 0
SC0800 SJ0801 SJ0424 55.32 0.0130 0 0 0 0
SC0801 SJ0802 SJ0003 120.90 0.0130 0 0 0 0
SC0802 SJ0803 SJ0275 237.97 0.0130 0 0 0 0
SC0803 SJ0804 SJ0805 116.31 0.0130 0 0 0 0
SC0804 SJ0805 SJ0831 201.87 0.0130 0 0 0 0
SC0805 SJ0806 SJ0807 179.00 0.0130 0 0 0 0
SC0806 SJ0807 SJ0985 103.66 0.0130 0 0 0 0
SC0807 SJ0808 SJ0733 62.76 0.0130 0 0 0 0
SC0808 SJ0809 SJ0810 164.91 0.0130 0 0 0 0
SC0809 SJ0810 SJ0608 735.69 0.0130 0 0 0 0
SC0810 SJ0811 SJ0751 181.89 0.0130 0 0 0 0
SC0811 SJ0812 SJ0093 240.59 0.0130 0 0 0 0
SC0812 SJ0813 SJ0814 181.20 0.0130 0 0 0 0
SC0813 SJ0814 SJ0657 203.08 0.0130 0 0 0 0
SC0814 SJ0815 SJ0428 36.71 0.0130 0 0 0 0
SC0815 SJ0816 SJ0533 46.13 0.0130 0 0 0 0
SC0816 SJ0817 SJ0369 407.59 0.0130 0 0 0 0
SC0817 SJ0818 SJ0819 170.24 0.0130 0 0 0 0
SC0818 SJ0819 SJ0336 139.25 0.0130 0 0 0 0
SC0819 SJ0820 SJ0729 93.38 0.0130 0 0 0 0
SC0820 SJ0821 SJ0822 43.10 0.0130 0 0 0 0
SC0821 SJ0822 SJ0857 153.63 0.0130 0 0 0 0
SC0822 SJ0823 SJ0838 1329.40 0.0130 0 0 0 0
SC0824 SJ0825 SJ0826 29.96 0.0130 0 0 0 0
SC0825 SJ0826 SJ0214 121.15 0.0130 0 0 0 0
SC0826 SJ0827 SJ0828 86.44 0.0130 0 0 0 0
SC0827 SJ0828 SJ0840 277.55 0.0130 0 0 0 0
SC0828 SJ0829 SJ0790 85.38 0.0130 0 0 0 0
SC0829 SJ0830 SJ0459 128.74 0.0130 0 0 0 0
SC0830 SJ0831 SJ0832 70.03 0.0130 0 0 0 0
SC0831 SJ0832 SJ0500 84.37 0.0130 0 0 0 0
SC0832 SJ0833 SJ0190 64.37 0.0130 0 0 0 0
SC0833 SJ0834 SJ0637 128.42 0.0130 0 0 0 0
SC0834 SJ0835 SJ0190 273.72 0.0130 0 0 0 0
SC0835 SJ0836 SJ0134 105.41 0.0130 0 0 0 0
SC0836 SJ0837 SJ0383 36.21 0.0130 0 0 0 0
SC0837 SJ0838 SJ0857 155.32 0.0130 0 0 0 0
SC0838 SJ0839 SJ0293 297.72 0.0130 0 0 0 0
SC0839 SJ0840 SJ0841 72.62 0.0130 0 0 0 0
SC0840 SJ0841 SJ0216 89.41 0.0130 0 0 0 0
SC0841 SJ0842 SJ0175 158.60 0.0130 0 0 0 0
SC0842 SJ0843 SJ0115 67.91 0.0130 0 0 0 0
SC0843 SJ0844 SJ0845 536.09 0.0130 0 0 0 0
SC0844 SJ0845 SJ0853 251.41 0.0130 0 0 0 0
SC0845 SJ0846 SJ0701 23.22 0.0130 0 0 0 0
SC0846 SJ0847 SJ0848 170.43 0.0130 0 0 0 0
SC0847 SJ0848 SJ0700 32.49 0.0130 0 0 0 0
SC0848 SJ0849 SJ0850 47.05 0.0130 0 0 0 0
SC0849 SJ0850 SJ0739 188.79 0.0130 0 0 0 0
SC0851 SJ0852 SJ0101 757.14 0.0130 0 0 0 0
SC0852 SJ0853 SJ0090 336.75 0.0130 0 0 0 0
SC0853 SJ0854 SJ0016 72.16 0.0130 0 0 0 0
SC0854 SJ0855 SJ0386 88.88 0.0130 0 0 0 0
SC0855 SJ0856 SJ0400 149.62 0.0130 0 0 0 0
SC0856 SJ0857 SJ0448 35.55 0.0130 0 0 0 0
SC0857 SJ0858 SJ0859 142.98 0.0130 0 0 0 0
SC0858 SJ0859 SJ0054 119.41 0.0130 0 0 0 0
SC0859 SJ0860 SJ0983 136.83 0.0130 0 0 0 0
SC0860 SJ0861 SJ0434 143.16 0.0130 0 0 0 0
SC0861 SJ0862 SJ0159 298.86 0.0130 0 0 0 0
SC0862 SJ0863 SJ1028 99.39 0.0130 0 0 0 0
SC0864 SJ0865 SJ0463 10.97 0.0130 0 0 0 0
SC0865 SJ0866 SJ0403 160.71 0.0130 0 0 0 0
SC0866 SJ0867 SJ0201 43.14 0.0130 0 0 0 0
SC0867 SJ0868 SJ0869 201.65 0.0130 0 0 0 0
SC0868 SJ0869 SJ0078 171.14 0.0130 0 0 0 0
SC0869 SJ0870 SJ0871 157.95 0.0130 0 0 0 0
SC0870 SJ0871 SJ0277 305.90 0.0130 0 0 0 0
SC0871 SJ0872 SJ0873 106.23 0.0130 0 0 0 0
SC0872 SJ0873 SJ0689 41.34 0.0130 0 0 0 0
SC0873 SJ0874 SJ0584 130.28 0.0130 0 0 0 0
SC0874 SJ0875 SJ0777 218.75 0.0130 0 0 0 0
SC0875 SJ0876 SJ0877 92.00 0.0130 0 0 0 0
SC0876 SJ0877 SJ0274 154.04 0.0130 0 0 0 0
SC0877 SJ0878 SJ0728 64.69 0.0130 0 0 0 0
SC0878 SJ0879 SJ0318 55.50 0.0130 0 0 0 0
SC0879 SJ0880 SJ0881 65.89 0.0130 0 0 0 0
SC0880 SJ0881 SJ0716 81.77 0.0130 0 0 0 0
SC0881 SJ0882 SJ0341 172.22 0.0130 0 0 0 0
SC0882 SJ0883 SJ0884 112.37 0.0130 0 0 0 0
SC0883 SJ0884 SJ0426 198.64 0.0130 0 0 0 0
SC0884 SJ0885 SJ0327 69.55 0.0130 0 0 0 0
SC0885 SJ0886 SJ0055 242.33 0.0130 0 0 0 0
SC0886 SJ0887 SJ0228 509.92 0.0130 0 0 0 0
SC0887 SJ0888 SJ0506 326.50 0.0130 0 0 0 0
SC0888 SJ0889 SJ0502 49.37 0.0130 0 0 0 0
SC0889 SJ0890 SJ0834 34.36 0.0130 0 0 0 0
SC0890 SJ0891 SJ0892 143.11 0.0130 0 0 0 0
SC0891 SJ0892 SJ0408 134.21 0.0130 0 0 0 0
SC0892 SJ0893 SJ0894 100.51 0.0130 0 0 0 0
SC0893 SJ0894 SJ1003 76.01 0.0130 0 0 0 0
SC0894 SJ0895 SJ0896 369.17 0.0130 0 0 0 0
SC0895 SJ0896 SJ0655 341.70 0.0130 0 0 0 0
SC0896 SJ0897 SJ0873 256.01 0.0130 0 0 0 0
SC0897 SJ0898 SJ0204 64.43 0.0130 0 0 0 0
SC0898 SJ0899 SJ0367 51.18 0.0130 0 0 0 0
SC0899 SJ0900 SJ0580 121.84 0.0130 0 0 0 0
SC0900 SJ0901 SJ0217 86.59 0.0130 0 0 0 0
SC0901 SJ0902 SJ0750 207.86 0.0130 0 0 0 0
SC0902 SJ0903 SJ0251 126.18 0.0130 0 0 0 0
SC0903 SJ0904 SJ0603 191.09 0.0130 0 0 0 0
SC0904 SJ0905 SJ0906 185.12 0.0130 0 0 0 0
SC0905 SJ0906 SJ0321 65.95 0.0130 0 0 0 0
SC0906 SJ0907 SJ0698 135.56 0.0130 0 0 0 0
SC0907 SJ0908 SJ0464 26.65 0.0130 0 0 0 0
SC0908 SJ0909 SJ0045 63.05 0.0130 0 0 0 0
SC0909 SJ0910 SJ0614 59.00 0.0130 0 0 0 0
SC0910 SJ0911 SJ0815 75.44 0.0130 0 0 0 0
SC0911 SJ0912 SJ0545 65.11 0.0130 0 0 0 0
SC0912 SJ0913 SJ0914 191.49 0.0130 0 0 0 0
SC0913 SJ0914 SJ0986 844.02 0.0130 0 0 0 0
SC0914 SJ0915 SJ0916 372.62 0.0130 0 0 0 0
SC0915 SJ0916 SJ0584 44.21 0.0130 0 0 0 0
SC0916 SJ0917 SJ0918 192.77 0.0130 0 0 0 0
SC0917 SJ0918 SJ0916 173.54 0.0130 0 0 0 0
SC0918 SJ0919 SJ0920 184.45 0.0130 0 0 0 0
SC0919 SJ0920 SJ0512 99.11 0.0130 0 0 0 0
SC0920 SJ0921 SJ0922 409.55 0.0130 0 0 0 0
SC0921 SJ0922 SJ0949 219.39 0.0130 0 0 0 0
SC0922 SJ0923 SJ0924 88.01 0.0130 0 0 0 0
SC0923 SJ0924 SJ0849 146.29 0.0130 0 0 0 0
SC0924 SJ0925 SJ0926 91.24 0.0130 0 0 0 0
SC0925 SJ0926 SJ0810 118.95 0.0130 0 0 0 0
SC0926 SJ0927 SJ0872 90.02 0.0130 0 0 0 0
SC0927 SJ0928 SJ0746 243.87 0.0130 0 0 0 0
SC0928 SJ0929 SJ0806 114.42 0.0130 0 0 0 0
SC0929 SJ0930 SJ0579 102.55 0.0130 0 0 0 0
SC0930 SJ0931 SJ0736 115.39 0.0130 0 0 0 0
SC0931 SJ0932 SJ0933 238.14 0.0130 0 0 0 0
SC0932 SJ0933 SJ0450 96.89 0.0130 0 0 0 0
SC0933 SJ0934 SJ0064 777.15 0.0130 0 0 0 0
SC0934 SJ0935 SJ0936 52.32 0.0130 0 0 0 0
SC0935 SJ0936 SJ1181 87.12 0.0130 0 0 0 0
SC0936 SJ0937 SJ0699 178.78 0.0130 0 0 0 0
SC0937 SJ0938 SJ0682 36.84 0.0130 0 0 0 0
SC0938 SJ0939 SJ0691 28.80 0.0130 0 0 0 0
SC0939 SJ0940 SJ0941 269.32 0.0130 0 0 0 0
SC0940 SJ0941 SJ0859 10.79 0.0130 0 0 0 0
SC0941 SJ0942 SJ0943 158.52 0.0130 0 0 0 0
SC0942 SJ0943 SJ0971 213.32 0.0130 0 0 0 0
SC0943 SJ0944 SJ0798 192.30 0.0130 0 0 0 0
SC0944 SJ0945 SJ0946 191.74 0.0130 0 0 0 0
SC0945 SJ0946 SJ0597 91.54 0.0130 0 0 0 0
SC0946 SJ0947 SJ0817 63.08 0.0130 0 0 0 0
SC0947 SJ0948 SJ0949 106.11 0.0130 0 0 0 0
SC0948 SJ0949 SJ0493 221.01 0.0130 0 0 0 0
SC0949 SJ0950 SJ0618 22.72 0.0130 0 0 0 0
SC0950 SJ0951 SJ0952 29.84 0.0130 0 0 0 0
SC0951 SJ0952 SJ0013 157.50 0.0130 0 0 0 0
SC0952 SJ0953 SJ0677 105.66 0.0130 0 0 0 0
SC0953 SJ0954 SJ0772 124.76 0.0130 0 0 0 0
SC0954 SJ0955 SJ0766 368.58 0.0130 0 0 0 0
SC0955 SJ0956 SJ0743 150.81 0.0130 0 0 0 0
SC0956 SJ0957 SJ0958 210.78 0.0130 0 0 0 0
SC0957 SJ0958 SJ0179 15.42 0.0130 0 0 0 0
SC0958 SJ0959 SJ0150 266.01 0.0130 0 0 0 0
SC0959 SJ0960 SJ0961 200.63 0.0130 0 0 0 0
SC0960 SJ0961 SJ0562 149.23 0.0130 0 0 0 0
SC0961 SJ0962 SJ0404 331.67 0.0130 0 0 0 0
SC0962 SJ0963 SJ0686 73.12 0.0130 0 0 0 0
SC0963 SJ0964 SJ0490 66.92 0.0130 0 0 0 0
SC0964 SJ0965 SJ0394 135.55 0.0130 0 0 0 0
SC0965 SJ0966 SJ0240 100.82 0.0130 0 0 0 0
SC0966 SJ0967 SJ0175 621.24 0.0130 0 0 0 0
SC0967 SJ0968 SJ0130 111.09 0.0130 0 0 0 0
SC0968 SJ0969 SJ0970 18.58 0.0130 0 0 0 0
SC0969 SJ0970 SJ0394 185.20 0.0130 0 0 0 0
SC0971 SJ0972 SJ0856 192.35 0.0130 0 0 0 0
SC0972 SJ0973 SJ0674 41.77 0.0130 0 0 0 0
SC0973 SJ0974 SJ0877 103.53 0.0130 0 0 0 0
SC0974 SJ0975 SJ0976 108.00 0.0130 0 0 0 0
SC0975 SJ0976 SJ0402 188.60 0.0130 0 0 0 0
SC0976 SJ0977 SJ0843 262.62 0.0130 0 0 0 0
SC0977 SJ0978 SJ0979 322.27 0.0130 0 0 0 0
SC0978 SJ0979 SJ0395 79.91 0.0130 0 0 0 0
SC0979 SJ0980 SJ0981 464.61 0.0130 0 0 0 0
SC0980 SJ0981 SJ0155 216.29 0.0130 0 0 0 0
SC0981 SJ0982 SJ0983 107.70 0.0130 0 0 0 0
SC0982 SJ0983 SJ0895 1983.84 0.0130 0 0 0 0
SC0983 SJ0984 SJ0847 44.15 0.0130 0 0 0 0
SC0984 SJ0985 SJ0038 89.39 0.0130 0 0 0 0
SC0985 SJ0986 SJ0361 45.03 0.0130 0 0 0 0
SC0986 SJ0987 SJ0241 27.91 0.0130 0 0 0 0
SC0987 SJ0988 SJ0596 162.14 0.0130 0 0 0 0
SC0988 SJ0989 SJ0855 155.52 0.0130 0 0 0 0
SC0989 SJ0990 SJ0991 103.48 0.0130 0 0 0 0
SC0990 SJ0991 SJ0961 112.45 0.0130 0 0 0 0
SC0991 SJ0992 SJ0722 72.52 0.0130 0 0 0 0
SC0992 SJ0993 SJ0119 145.88 0.0130 0 0 0 0
SC0993 SJ0994 SJ0995 66.13 0.0130 0 0 0 0
SC0994 SJ0995 SJ0935 17.56 0.0130 0 0 0 0
SC0995 SJ0996 SJ0420 92.28 0.0130 0 0 0 0
SC0996 SJ0997 SJ0408 170.70 0.0130 0 0 0 0
SC0997 SJ0998 SJ0631 156.53 0.0130 0 0 0 0
SC0998 SJ0999 SJ0128 107.79 0.0130 0 0 0 0
SC0999 SJ1000 SJ0067 195.29 0.0130 0 0 0 0
SC1000 SJ1001 SJ1002 124.61 0.0130 0 0 0 0
SC1001 SJ1002 SJ0426 43.73 0.0130 0 0 0 0
SC1002 SJ1003 SJ0264 35.81 0.0130 0 0 0 0
SC1003 SJ1004 SJ0162 228.03 0.0130 0 0 0 0
SC1004 SJ1005 SJ0276 172.58 0.0130 0 0 0 0
SC1005 SJ1006 SJ0971 89.65 0.0130 0 0 0 0
SC1006 SJ1007 SJ1008 164.00 0.0130 0 0 0 0
SC1007 SJ1008 SJ0432 329.58 0.0130 0 0 0 0
SC1008 SJ1009 SJ0775 23.00 0.0130 0 0 0 0
SC1009 SJ1010 SJ0222 49.51 0.0130 0 0 0 0
SC1010 SJ1011 SJ0815 268.00 0.0130 0 0 0 0
SC1011 SJ1012 SJ0842 153.82 0.0130 0 0 0 0
SC1012 SJ1013 SJ1014 34.86 0.0130 0 0 0 0
SC1013 SJ1014 SJ1029 135.96 0.0130 0 0 0 0
SC1014 SJ1015 SJ0108 107.35 0.0130 0 0 0 0
SC1015 SJ1016 SJ0613 381.01 0.0130 0 0 0 0
SC1016 SJ1017 SJ0132 100.03 0.0130 0 0 0 0
SC1017 SJ1018 SJ0918 49.39 0.0130 0 0 0 0
SC1018 SJ1019 SJ0649 44.19 0.0130 0 0 0 0
SC1019 SJ1020 SJ0906 291.99 0.0130 0 0 0 0
SC1020 SJ1021 SJ0415 94.14 0.0130 0 0 0 0
SC1021 SJ1022 SJ0774 183.16 0.0130 0 0 0 0
SC1022 SJ1023 SJ0164 789.23 0.0130 0 0 0 0
SC1023 SJ1024 SJ0431 35.40 0.0130 0 0 0 0
SC1024 SJ1025 SJ0858 255.75 0.0130 0 0 0 0
SC1025 SJ1026 SJ0375 63.07 0.0130 0 0 0 0
SC1026 SJ1027 SJ1134 591.49 0.0130 0 0 0 0
SC1028 SJ1029 SJ0604 561.14 0.0130 0 0 0 0
SC1029 SJ1030 SJ0953 110.24 0.0130 0 0 0 0
SC1030 SJ1031 SJ0063 42.03 0.0130 0 0 0 0
SC1031 SJ1032 SJ0430 107.84 0.0130 0 0 0 0
SC1032 SJ1033 SJ0147 48.12 0.0130 0 0 0 0
SC1033 SJ1034 SJ0251 316.80 0.0130 0 0 0 0
SC1034 SJ1035 SJ1014 400.32 0.0130 0 0 0 0
SC1035 SJ1036 SJ0824 79.92 0.0130 0 0 0 0
SC1036 SJ1037 SJ0069 149.31 0.0130 0 0 0 0
SC1037 SJ1038 SJ1039 172.05 0.0130 0 0 0 0
SC1038 SJ1039 SJ1018 126.14 0.0130 0 0 0 0
SC1039 SJ1040 SJ0328 40.26 0.0130 0 0 0 0
SC1040 SJ1041 SJ0035 42.53 0.0130 0 0 0 0
SC1041 SJ1042 SJ0314 89.03 0.0130 0 0 0 0
SC1042 SJ1043 SJ0353 222.75 0.0130 0 0 0 0
SC1043 SJ1044 SJ0928 110.77 0.0130 0 0 0 0
SC1044 SJ1045 SJ1040 432.21 0.0130 0 0 0 0
SC1045 SJ1046 SJ1015 192.31 0.0130 0 0 0 0
SC1046 SJ1047 SJ0840 68.31 0.0130 0 0 0 0
SC1047 SJ1048 SJ0284 125.27 0.0130 0 0 0 0
SC1048 SJ1049 SJ1142 272.13 0.0130 0 0 0 0
SC1049 SJ1050 SJ0068 189.95 0.0130 0 0 0 0
SC1050 SJ1051 SJ1052 41.40 0.0130 0 0 0 0
SC1051 SJ1052 SJ1168 152.77 0.0130 0 0 0 0
SC1052 SJ1053 SJ0562 63.19 0.0130 0 0 0 0
SC1053 SJ1054 SJ0702 165.27 0.0130 0 0 0 0
SC1054 SJ1055 SJ0056 56.61 0.0130 0 0 0 0
SC1055 SJ1056 SJ0995 187.06 0.0130 0 0 0 0
SC1056 SJ1057 SJ0201 114.67 0.0130 0 0 0 0
SC1057 SJ1058 SJ0370 295.54 0.0130 0 0 0 0
SC1058 SJ1059 SJ0001 115.99 0.0130 0 0 0 0
SC1059 SJ1060 SJ0807 9.36 0.0130 0 0 0 0
SC1060 SJ1061 SJ0084 210.22 0.0130 0 0 0 0
SC1061 SJ1062 SJ0701 129.03 0.0130 0 0 0 0
SC1062 SJ1063 SJ0892 320.58 0.0130 0 0 0 0
SC1063 SJ1064 SJ0537 32.59 0.0130 0 0 0 0
SC1064 SJ1065 SJ0875 176.86 0.0130 0 0 0 0
SC1065 SJ1066 SJ0773 30.74 0.0130 0 0 0 0
SC1066 SJ1067 SJ0321 2.97 0.0130 0 0 0 0
SC1067 SJ1068 SJ0811 20.78 0.0130 0 0 0 0
SC1068 SJ1069 SJ0397 376.07 0.0130 0 0 0 0
SC1069 SJ1070 SJ0254 216.44 0.0130 0 0 0 0
SC1070 SJ1071 SJ1064 38.35 0.0130 0 0 0 0
SC1071 SJ1072 SJ0433 138.86 0.0130 0 0 0 0
SC1072 SJ1073 SJ0577 62.44 0.0130 0 0 0 0
SC1073 SJ1074 SJ1030 62.21 0.0130 0 0 0 0
SC1075 SJ1076 SJ0513 182.70 0.0130 0 0 0 0
SC1076 SJ1077 SJ0152 212.16 0.0130 0 0 0 0
SC1077 SJ1078 SJ0856 72.58 0.0130 0 0 0 0
SC1078 SJ1079 SJ0326 472.59 0.0130 0 0 0 0
SC1079 SJ1080 SJ0422 140.73 0.0130 0 0 0 0
SC1080 SJ1081 SJ0385 21.39 0.0130 0 0 0 0
SC1081 SJ1082 SJ1083 194.75 0.0130 0 0 0 0
SC1082 SJ1083 SJ0656 107.88 0.0130 0 0 0 0
SC1083 SJ1084 SJ1074 60.18 0.0130 0 0 0 0
SC1084 SJ1085 SJ0010 54.75 0.0130 0 0 0 0
SC1085 SJ1086 SJ0248 221.72 0.0130 0 0 0 0
SC1086 SJ1087 SJ0413 171.28 0.0130 0 0 0 0
SC1087 SJ1088 SJ0662 77.06 0.0130 0 0 0 0
SC1088 SJ1089 SJ0669 335.48 0.0130 0 0 0 0
SC1089 SJ1090 SJ0809 231.49 0.0130 0 0 0 0
SC1090 SJ1091 SJ0845 120.12 0.0130 0 0 0 0
SC1091 SJ1092 SJ0878 58.59 0.0130 0 0 0 0
SC1092 SJ1093 SJ0582 64.20 0.0130 0 0 0 0
SC1093 SJ1094 SJ0585 41.88 0.0130 0 0 0 0
SC1094 SJ1095 SJ1049 279.71 0.0130 0 0 0 0
SC1095 SJ1096 SJ0231 38.39 0.0130 0 0 0 0
SC1096 SJ1097 SJ0239 135.33 0.0130 0 0 0 0
SC1097 SJ1098 SJ0745 180.50 0.0130 0 0 0 0
SC1098 SJ1099 SJ0348 2234.29 0.0130 0 0 0 0
SC1099 SJ1100 SJ0487 171.60 0.0130 0 0 0 0
SC1100 SJ1101 SJ0602 45.79 0.0130 0 0 0 0
SC1101 SJ1102 SJ0759 132.26 0.0130 0 0 0 0
SC1102 SJ1103 SJ0799 344.83 0.0130 0 0 0 0
SC1103 SJ1104 SJ0391 37.33 0.0130 0 0 0 0
SC1104 SJ1105 SJ1106 113.06 0.0130 0 0 0 0
SC1105 SJ1106 SJ0972 290.45 0.0130 0 0 0 0
SC1106 SJ1107 SJ0180 994.79 0.0130 0 0 0 0
SC1107 SJ1108 SJ0716 134.61 0.0130 0 0 0 0
SC1108 SJ1109 SJ0896 194.10 0.0130 0 0 0 0
SC1109 SJ1110 SJ0099 208.95 0.0130 0 0 0 0
SC1110 SJ1111 SJ0330 284.54 0.0130 0 0 0 0
SC1111 SJ1112 SJ1076 182.29 0.0130 0 0 0 0
SC1112 SJ1113 SJ0669 57.69 0.0130 0 0 0 0
SC1113 SJ1114 SJ0914 51.74 0.0130 0 0 0 0
SC1114 SJ1115 SJ0328 169.98 0.0130 0 0 0 0
SC1115 SJ1116 SJ0981 251.59 0.0130 0 0 0 0
SC1116 SJ1117 SJ0080 1384.85 0.0130 0 0 0 0
SC1117 SJ1118 SJ0310 67.93 0.0130 0 0 0 0
SC1118 SJ1119 SJ0612 189.47 0.0130 0 0 0 0
SC1119 SJ1120 SJ1087 56.04 0.0130 0 0 0 0
SC1120 SJ1121 SJ0564 29.27 0.0130 0 0 0 0
SC1121 SJ1122 SJ0293 43.13 0.0130 0 0 0 0
SC1122 SJ1123 SJ0867 71.53 0.0130 0 0 0 0
SC1123 SJ1124 SJ0826 138.04 0.0130 0 0 0 0
SC1124 SJ1125 SJ0203 170.07 0.0130 0 0 0 0
SC1125 SJ1126 SJ0491 49.60 0.0130 0 0 0 0
SC1126 SJ1127 SJ1128 127.73 0.0130 0 0 0 0
SC1127 SJ1128 SJ0613 22.81 0.0130 0 0 0 0
SC1128 SJ1129 SJ0835 42.42 0.0130 0 0 0 0
SC1129 SJ1130 SJ0960 96.18 0.0130 0 0 0 0
SC1130 SJ1131 SJ0729 93.77 0.0130 0 0 0 0
SC1131 SJ1132 SJ0543 74.75 0.0130 0 0 0 0
SC1132 SJ1133 SJ0616 104.78 0.0130 0 0 0 0
SC1133 SJ1134 SJ0269 119.78 0.0130 0 0 0 0
SC1134 SJ1135 SJ0894 342.21 0.0130 0 0 0 0
SC1135 SJ1136 SJ0311 52.91 0.0130 0 0 0 0
SC1136 SJ1137 SJ0066 3.95 0.0130 0 0 0 0
SC1137 SJ1138 SJ0703 89.61 0.0130 0 0 0 0
SC1138 SJ1139 SJ0188 508.82 0.0130 0 0 0 0
SC1139 SJ1140 SJ0567 272.23 0.0130 0 0 0 0
SC1140 SJ1141 SJ0937 6.37 0.0130 0 0 0 0
SC1141 SJ1142 SJ0738 171.16 0.0130 0 0 0 0
SC1143 SJ1144 SJ0868 45.64 0.0130 0 0 0 0
SC1144 SJ1145 SJ0851 121.99 0.0130 0 0 0 0
SC1145 SJ1146 SJ0766 170.82 0.0130 0 0 0 0
SC1146 SJ1147 SJ0250 211.24 0.0130 0 0 0 0
SC1147 SJ1148 SJ0828 176.07 0.0130 0 0 0 0
SC1148 SJ1149 SJ0470 14.00 0.0130 0 0 0 0
SC1149 SJ1150 SJ1151 163.68 0.0130 0 0 0 0
SC1150 SJ1151 SJ0110 199.21 0.0130 0 0 0 0
SC1151 SJ1152 SJ0672 40.03 0.0130 0 0 0 0
SC1152 SJ1153 SJ1106 35.23 0.0130 0 0 0 0
SC1153 SJ1154 SJ0555 134.30 0.0130 0 0 0 0
SC1154 SJ1155 SJ0919 92.16 0.0130 0 0 0 0
SC1155 SJ1156 SJ1005 141.27 0.0130 0 0 0 0
SC1156 SJ1157 SJ0871 745.84 0.0130 0 0 0 0
SC1157 SJ1158 SJ0724 10.11 0.0130 0 0 0 0
SC1158 SJ1159 SJ0636 40.56 0.0130 0 0 0 0
SC1159 SJ1160 SJ0651 32.01 0.0130 0 0 0 0
SC1160 SJ1161 SJ1086 105.69 0.0130 0 0 0 0
SC1161 SJ1162 SJ0434 6.13 0.0130 0 0 0 0
SC1162 SJ1163 SJ0904 380.70 0.0130 0 0 0 0
SC1163 SJ1164 SJ0713 151.80 0.0130 0 0 0 0
SC1164 SJ1165 SJ0628 198.43 0.0130 0 0 0 0
SC1165 SJ1166 SJ0407 61.61 0.0130 0 0 0 0
SC1166 SJ1167 SJ0402 188.52 0.0130 0 0 0 0
SC1167 SJ1168 SJ0872 37.87 0.0130 0 0 0 0
SC1168 SJ1169 SJ0619 92.68 0.0130 0 0 0 0
SC1169 SJ1170 SJ0700 131.29 0.0130 0 0 0 0
SC1170 SJ1171 SJ0692 78.21 0.0130 0 0 0 0
SC1171 SJ1172 SJ0225 63.06 0.0130 0 0 0 0
SC1172 SJ1173 SJ1052 131.61 0.0130 0 0 0 0
SC1173 SJ1174 SJ0082 16.60 0.0130 0 0 0 0
SC1174 SJ1175 SJ0027 106.62 0.0130 0 0 0 0
SC1175 SJ1176 SJ1128 194.24 0.0130 0 0 0 0
SC1176 SJ1177 SJ0103 14.26 0.0130 0 0 0 0
SC1177 SJ1178 SJ0656 9.32 0.0130 0 0 0 0
SC1178 SJ1179 SJ0860 12.43 0.0130 0 0 0 0
SC1179 SJ1180 SJ0455 342.41 0.0130 0 0 0 0
SC1180 SJ1181 SJ0727 96.85 0.0130 0 0 0 0
SC1181 SJ1182 SJ0215 233.49 0.0130 0 0 0 0
SC1182 SJ1183 SJ0037 32.38 0.0130 0 0 0 0
SC1183 SJ1184 SJ0991 234.40 0.0130 0 0 0 0
SC1184 SJ1185 SJ1067 484.52 0.0130 0 0 0 0
SC1185 SJ1186 SJ0849 109.56 0.0130 0 0 0 0
SC1186 SJ1187 SJ0083 35.95 0.0130 0 0 0 0
SC1187 SJ1188 SJ0070 228.70 0.0130 0 0 0 0
SC1188 SJ1189 SJ0281 188.52 0.0130 0 0 0 0
SC1189 SJ1190 SJ0216 39.55 0.0130 0 0 0 0
SC1190 SJ1191 SJ0312 71.58 0.0130 0 0 0 0
SC1191 SJ1192 SJ0614 173.51 0.0130 0 0 0 0
SC1192 SJ1193 SJ0260 353.93 0.0130 0 0 0 0
SC1193 SJ1194 SJ0478 99.16 0.0130 0 0 0 0
SC1194 SJ1195 SJ0065 174.09 0.0130 0 0 0 0
SC1195 SJ1196 SJ0881 188.82 0.0130 0 0 0 0
SC1196 SJ1197 SJ0281 56.59 0.0130 0 0 0 0
SC1197 SJ1198 SJ0730 207.05 0.0130 0 0 0 0
SC1198 SJ1199 SJ1156 172.18 0.0130 0 0 0 0
SC1199 SJ1200 SJ0374 46.15 0.0130 0 0 0 0
SC1200 SJ1201 SJ0924 183.44 0.0130 0 0 0 0
SC1201 SJ1202 SJ0555 122.87 0.0130 0 0 0 0
SC1202 SJ1203 SJ0114 263.30 0.0130 0 0 0 0
SC1203 SJ1204 SJ0534 167.08 0.0130 0 0 0 0
SC1204 SJ1205 SJ0137 136.98 0.0130 0 0 0 0
SC1205 SJ1206 SJ0443 393.42 0.0130 0 0 0 0
SC1206 SJ1207 SJ0282 178.84 0.0130 0 0 0 0
SC1207 SJ1208 SJ0679 56.43 0.0130 0 0 0 0
SC1209 SJ1210 SJ0300 60.62 0.0130 0 0 0 0
SC1210 SJ1211 SJ0413 20.11 0.0130 0 0 0 0
SC1211 SJ1212 SJ0618 183.12 0.0130 0 0 0 0
SC1212 SJ1213 SJ1214 257.24 0.0130 0 0 0 0
SC1213 SJ1214 SJ0837 125.16 0.0130 0 0 0 0
SC1214 SJ1215 SJ0615 280.92 0.0130 0 0 0 0
SC1215 SJ1216 SJ0283 331.48 0.0130 0 0 0 0
SC1216 SJ1217 SJ0722 77.15 0.0130 0 0 0 0
SC1217 SJ1218 SJ0359 44.59 0.0130 0 0 0 0
SC1218 SJ1219 SJ0410 29.95 0.0130 0 0 0 0
SC1219 SJ1220 SJ0288 49.66 0.0130 0 0 0 0
SC1220 SJ1221 SJ0327 124.73 0.0130 0 0 0 0
SC1221 SJ1222 SJ0286 312.96 0.0130 0 0 0 0
SC1222 SJ1223 SJ0151 467.99 0.0130 0 0 0 0
SC1223 SJ1224 SJ0067 194.64 0.0130 0 0 0 0
SC1224 SJ1225 SJ0922 52.43 0.0130 0 0 0 0
SC1225 SJ1226 SJ0733 631.00 0.0130 0 0 0 0
SC1226 SJ1227 SJ0609 27.80 0.0130 0 0 0 0
SC1227 SJ1228 SJ0105 556.56 0.0130 0 0 0 0
SC1228 SJ1229 SJ0699 32.07 0.0130 0 0 0 0
SC1229 SJ1230 SJ0106 128.06 0.0130 0 0 0 0
SC1230 SJ1231 SJ0517 76.66 0.0130 0 0 0 0
SC1231 SJ1232 SJ1127 321.91 0.0130 0 0 0 0
SC1232 SJ1233 SJ0343 190.49 0.0130 0 0 0 0
SC1233 SJ1234 SJ0155 148.77 0.0130 0 0 0 0
SC1234 SJ1235 SJ0693 156.69 0.0130 0 0 0 0
SC1235 SJ1236 SJ0868 136.42 0.0130 0 0 0 0
SC1236 SJ1237 SJ0315 91.72 0.0130 0 0 0 0
SC1237 SJ1238 SJ0064 224.06 0.0130 0 0 0 0
SC1238 SJ1239 SJ0242 5.00 0.0130 0 0 0 0

[PUMPS]
;;Name FromNode ToNode PumpCurve Status Startup Shutoff
PU001 SJ0315 SJ0609 PC001 ON 0.15 0.05
PU002 SJ0321 SJ0322 PC002 ON 0.15 0.05
PU003 SJ0337 SJ0760 PC003 ON 0.15 0.05
PU004 SJ0344 SJ0345 PC004 ON 0.15 0.05
PU005 SJ0352 SJ0739 PC005 ON 0.15 0.05
PU006 SJ0376 SJ0241 PC006 ON 0.15 0.05
PU007 SJ0477 SJ0478 PC007 ON 0.15 0.05
PU008 SJ0478 SJ0287 PC008 ON 0.15 0.05
PU009 SJ0486 SJ0729 PC009 ON 0.15 0.05
PU010 SJ0546 SJ0526 PC010 ON 0.15 0.05
PU011 SJ0640 SJ0375 PC011 ON 0.15 0.05
PU012 SJ0684 SJ0685 PC012 ON 0.15 0.05
PU013 SJ0685 SJ0760 PC013 ON 0.15 0.05
PU014 SJ0729 SJ0287 PC014 ON 0.15 0.05
PU015 SJ0748 SJ0749 PC015 ON 0.15 0.05
PU016 SJ0749 SJ1026 PC016 ON 0.15 0.05
PU017 SJ0760 SJ0376 PC017 ON 0.15 0.05
PU018 SJ0824 SJ0749 PC018 ON 0.15 0.05
PU019 SJ0851 SJ0526 PC019 ON 0.15 0.05
PU020 SJ0864 SJ0820 PC020 ON 0.15 0.05
PU021 SJ0971 SJ0345 PC021 ON 0.15 0.05
PU022 SJ1028 SJ0477 PC022 ON 0.15 0.05
PU023 SJ1075 SJ0820 PC023 ON 0.15 0.05
PU024 SJ1143 SJ0540 PC024 ON 0.15 0.05
PU025 SJ1209 SJ0486 PC025 ON 0.15 0.05

[XSECTIONS]
;;Link Shape Geom1 Geom2 Geom3 Geom4 Barrels
SC0001 CIRCULAR 0.200 0 0 0 1
SC0002 CIRCULAR 0.400 0 0 0 1
SC0003 CIRCULAR 0.200 0 0 0 1
SC0004 CIRCULAR 0.200 0 0 0 1
SC0005 CIRCULAR 0.200 0 0 0 1
SC0006 CIRCULAR 0.200 0 0 0 1
SC0007 CIRCULAR 0.200 0 0 0 1
SC0008 CIRCULAR 0.200 0 0 0 1
SC0009 CIRCULAR 0.200 0 0 0 1
SC0010 CIRCULAR 0.200 0 0 0 1
SC0011 CIRCULAR 0.200 0 0 0 1
SC0012 CIRCULAR 0.200 0 0 0 1
SC0013 CIRCULAR 0.200 0 0 0 1
SC0014 CIRCULAR 0.200 0 0 0 1
SC0015 CIRCULAR 0.200 0 0 0 1
SC0016 CIRCULAR 0.200 0 0 0 1
SC0017 CIRCULAR 0.200 0 0 0 1
SC0018 CIRCULAR 0.200 0 0 0 1
SC0019 CIRCULAR 0.200 0 0 0 1
SC0020 CIRCULAR 0.200 0 0 0 1
SC0021 CIRCULAR 0.200 0 0 0 1
SC0022 CIRCULAR 0.200 0 0 0 1
SC0023 CIRCULAR 0.200 0 0 0 1
SC0024 CIRCULAR 0.200 0 0 0 1
SC0025 CIRCULAR 0.200 0 0 0 1
SC0026 CIRCULAR 0.200 0 0 0 1
SC0027 CIRCULAR 0.200 0 0 0 1
SC0028 CIRCULAR 0.200 0 0 0 1
SC0029 CIRCULAR 0.200 0 0 0 1
SC0030 CIRCULAR 0.200 0 0 0 1
SC0031 CIRCULAR 0.200 0 0 0 1
SC0032 CIRCULAR 0.200 0 0 0 1
SC0033 CIRCULAR 0.300 0 0 0 1
SC0034 CIRCULAR 0.200 0 0 0 1
SC0035 CIRCULAR 0.200 0 0 0 1
SC0036 CIRCULAR 0.200 0 0 0 1
SC0037 CIRCULAR 0.200 0 0 0 1
SC0038 CIRCULAR 0.200 0 0 0 1
SC0039 CIRCULAR 0.200 0 0 0 1
SC0040 CIRCULAR 0.200 0 0 0 1
SC0041 CIRCULAR 0.200 0 0 0 1
SC0042 CIRCULAR 0.200 0 0 0 1
SC0043 CIRCULAR 0.200 0 0 0 1
SC0044 CIRCULAR 0.200 0 0 0 1
SC0045 CIRCULAR 0.200 0 0 0 1
SC0046 CIRCULAR 0.200 0 0 0 1
SC0047 CIRCULAR 0.200 0 0 0 1
SC0048 CIRCULAR 0.200 0 0 0 1
SC0049 CIRCULAR 0.200 0 0 0 1
SC0050 CIRCULAR 0.200 0 0 0 1
SC0051 CIRCULAR 0.400 0 0 0 1
SC0052 CIRCULAR 0.400 0 0 0 1
SC0053 CIRCULAR 0.400 0 0 0 1
SC0054 CIRCULAR 0.200 0 0 0 1
SC0055 CIRCULAR 0.200 0 0 0 1
SC0056 CIRCULAR 0.200 0 0 0 1
SC0057 CIRCULAR 0.200 0 0 0 1
SC0058 CIRCULAR 0.200 0 0 0 1
SC0059 CIRCULAR 0.200 0 0 0 1
SC0060 CIRCULAR 0.200 0 0 0 1
SC0061 CIRCULAR 0.200 0 0 0 1
SC0062 CIRCULAR 0.400 0 0 0 1
SC0063 CIRCULAR 0.400 0 0 0 1
SC0064 CIRCULAR 0.200 0 0 0 1
SC0065 CIRCULAR 0.200 0 0 0 1
SC0066 CIRCULAR 0.200 0 0 0 1
SC0067 CIRCULAR 0.200 0 0 0 1
SC0068 CIRCULAR 0.200 0 0 0 1
SC0069 CIRCULAR 0.200 0 0 0 1
SC0070 CIRCULAR 0.200 0 0 0 1
SC0071 CIRCULAR 0.200 0 0 0 1
SC0072 CIRCULAR 0.200 0 0 0 1
SC0073 CIRCULAR 0.200 0 0 0 1
SC0074 CIRCULAR 0.200 0 0 0 1
SC0075 CIRCULAR 0.200 0 0 0 1
SC0076 CIRCULAR 0.200 0 0 0 1
SC0077 CIRCULAR 0.200 0 0 0 1
SC0078 CIRCULAR 0.200 0 0 0 1
SC0079 CIRCULAR 0.200 0 0 0 1
SC0080 CIRCULAR 0.200 0 0 0 1
SC0081 CIRCULAR 0.200 0 0 0 1
SC0082 CIRCULAR 0.200 0 0 0 1
SC0083 CIRCULAR 0.200 0 0 0 1
SC0084 CIRCULAR 0.200 0 0 0 1
SC0085 CIRCULAR 0.200 0 0 0 1
SC0086 CIRCULAR 0.200 0 0 0 1
SC0087 CIRCULAR 0.200 0 0 0 1
SC0088 CIRCULAR 0.200 0 0 0 1
SC0089 CIRCULAR 0.200 0 0 0 1
SC0090 CIRCULAR 0.200 0 0 0 1
SC0091 CIRCULAR 0.200 0 0 0 1
SC0092 CIRCULAR 0.200 0 0 0 1
SC0093 CIRCULAR 0.200 0 0 0 1
SC0094 CIRCULAR 0.200 0 0 0 1
SC0095 CIRCULAR 0.200 0 0 0 1
SC0096 CIRCULAR 0.200 0 0 0 1
SC0097 CIRCULAR 0.200 0 0 0 1
SC0098 CIRCULAR 0.200 0 0 0 1
SC0099 CIRCULAR 0.200 0 0 0 1
SC0100 CIRCULAR 0.200 0 0 0 1
SC0101 CIRCULAR 0.200 0 0 0 1
SC0102 CIRCULAR 0.200 0 0 0 1
SC0103 CIRCULAR 0.200 0 0 0 1
SC0104 CIRCULAR 0.200 0 0 0 1
SC0105 CIRCULAR 0.200 0 0 0 1
SC0106 CIRCULAR 0.200 0 0 0 1
SC0107 CIRCULAR 0.200 0 0 0 1
SC0108 CIRCULAR 0.200 0 0 0 1
SC0109 CIRCULAR 0.200 0 0 0 1
SC0110 CIRCULAR 0.200 0 0 0 1
SC0111 CIRCULAR 0.200 0 0 0 1
SC0112 CIRCULAR 0.200 0 0 0 1
SC0113 CIRCULAR 0.200 0 0 0 1
SC0114 CIRCULAR 0.200 0 0 0 1
SC0115 CIRCULAR 0.200 0 0 0 1
SC0116 CIRCULAR 0.200 0 0 0 1
SC0117 CIRCULAR 0.200 0 0 0 1
SC0118 CIRCULAR 0.200 0 0 0 1
SC0119 CIRCULAR 0.200 0 0 0 1
SC0120 CIRCULAR 0.200 0 0 0 1
SC0121 CIRCULAR 0.200 0 0 0 1
SC0122 CIRCULAR 0.200 0 0 0 1
SC0123 CIRCULAR 0.200 0 0 0 1
SC0124 CIRCULAR 0.200 0 0 0 1
SC0125 CIRCULAR 0.200 0 0 0 1
SC0126 CIRCULAR 0.200 0 0 0 1
SC0127 CIRCULAR 0.200 0 0 0 1
SC0128 CIRCULAR 0.200 0 0 0 1
SC0129 CIRCULAR 0.200 0 0 0 1
SC0130 CIRCULAR 0.200 0 0 0 1
SC0131 CIRCULAR 0.200 0 0 0 1
SC0132 CIRCULAR 0.200 0 0 0 1
SC0133 CIRCULAR 0.200 0 0 0 1
SC0134 CIRCULAR 0.200 0 0 0 1
SC0135 CIRCULAR 0.200 0 0 0 1
SC0136 CIRCULAR 0.200 0 0 0 1
SC0137 CIRCULAR 0.200 0 0 0 1
SC0138 CIRCULAR 0.200 0 0 0 1
SC0139 CIRCULAR 0.250 0 0 0 1
SC0140 CIRCULAR 0.200 0 0 0 1
SC0141 CIRCULAR 0.200 0 0 0 1
SC0142 CIRCULAR 0.200 0 0 0 1
SC0143 CIRCULAR 0.200 0 0 0 1
SC0144 CIRCULAR 0.200 0 0 0 1
SC0145 CIRCULAR 0.200 0 0 0 1
SC0146 CIRCULAR 0.200 0 0 0 1
SC0147 CIRCULAR 0.200 0 0 0 1
SC0148 CIRCULAR 0.200 0 0 0 1
SC0149 CIRCULAR 0.200 0 0 0 1
SC0150 CIRCULAR 0.200 0 0 0 1
SC0151 CIRCULAR 0.200 0 0 0 1
SC0152 CIRCULAR 0.200 0 0 0 1
SC0153 CIRCULAR 0.200 0 0 0 1
SC0154 CIRCULAR 0.200 0 0 0 1
SC0155 CIRCULAR 0.200 0 0 0 1
SC0156 CIRCULAR 0.250 0 0 0 1
SC0157 CIRCULAR 0.200 0 0 0 1
SC0158 CIRCULAR 0.200 0 0 0 1
SC0159 CIRCULAR 0.200 0 0 0 1
SC0160 CIRCULAR 0.200 0 0 0 1
SC0161 CIRCULAR 0.200 0 0 0 1
SC0162 CIRCULAR 0.200 0 0 0 1
SC0163 CIRCULAR 0.200 0 0 0 1
SC0164 CIRCULAR 0.200 0 0 0 1
SC0165 CIRCULAR 0.200 0 0 0 1
SC0166 CIRCULAR 0.200 0 0 0 1
SC0167 CIRCULAR 0.200 0 0 0 1
SC0168 CIRCULAR 0.200 0 0 0 1
SC0169 CIRCULAR 0.400 0 0 0 1
SC0170 CIRCULAR 0.600 0 0 0 1
SC0171 CIRCULAR 0.200 0 0 0 1
SC0172 CIRCULAR 0.200 0 0 0 1
SC0173 CIRCULAR 0.200 0 0 0 1
SC0174 CIRCULAR 0.200 0 0 0 1
SC0175 CIRCULAR 0.200 0 0 0 1
SC0176 CIRCULAR 0.200 0 0 0 1
SC0177 CIRCULAR 0.200 0 0 0 1
SC0178 CIRCULAR 0.200 0 0 0 1
SC0179 CIRCULAR 0.200 0 0 0 1
SC0180 CIRCULAR 0.200 0 0 0 1
SC0181 CIRCULAR 0.200 0 0 0 1
SC0182 CIRCULAR 0.200 0 0 0 1
SC0183 CIRCULAR 0.200 0 0 0 1
SC0184 CIRCULAR 0.200 0 0 0 1
SC0185 CIRCULAR 0.200 0 0 0 1
SC0186 CIRCULAR 0.200 0 0 0 1
SC0187 CIRCULAR 0.200 0 0 0 1
SC0188 CIRCULAR 0.200 0 0 0 1
SC0189 CIRCULAR 0.200 0 0 0 1
SC0190 CIRCULAR 0.400 0 0 0 1
SC0191 CIRCULAR 0.200 0 0 0 1
SC0192 CIRCULAR 0.200 0 0 0 1
SC0193 CIRCULAR 0.200 0 0 0 1
SC0194 CIRCULAR 0.200 0 0 0 1
SC0195 CIRCULAR 0.200 0 0 0 1
SC0196 CIRCULAR 0.200 0 0 0 1
SC0197 CIRCULAR 0.200 0 0 0 1
SC0198 CIRCULAR 0.200 0 0 0 1
SC0199 CIRCULAR 0.200 0 0 0 1
SC0200 CIRCULAR 0.200 0 0 0 1
SC0201 CIRCULAR 0.200 0 0 0 1
SC0202 CIRCULAR 0.200 0 0 0 1
SC0203 CIRCULAR 0.200 0 0 0 1
SC0204 CIRCULAR 0.200 0 0 0 1
SC0205 CIRCULAR 0.200 0 0 0 1
SC0206 CIRCULAR 0.200 0 0 0 1
SC0207 CIRCULAR 0.200 0 0 0 1
SC0208 CIRCULAR 0.200 0 0 0 1
SC0209 CIRCULAR 0.200 0 0 0 1
SC0210 CIRCULAR 0.200 0 0 0 1
SC0211 CIRCULAR 0.200 0 0 0 1
SC0212 CIRCULAR 0.200 0 0 0 1
SC0213 CIRCULAR 0.200 0 0 0 1
SC0214 CIRCULAR 0.200 0 0 0 1
SC0215 CIRCULAR 0.200 0 0 0 1
SC0216 CIRCULAR 0.200 0 0 0 1
SC0217 CIRCULAR 0.200 0 0 0 1
SC0218 CIRCULAR 0.200 0 0 0 1
SC0219 CIRCULAR 0.200 0 0 0 1
SC0220 CIRCULAR 0.200 0 0 0 1
SC0221 CIRCULAR 0.200 0 0 0 1
SC0222 CIRCULAR 0.200 0 0 0 1
SC0223 CIRCULAR 0.200 0 0 0 1
SC0224 CIRCULAR 0.200 0 0 0 1
SC0225 CIRCULAR 0.200 0 0 0 1
SC0226 CIRCULAR 0.200 0 0 0 1
SC0227 CIRCULAR 0.200 0 0 0 1
SC0228 CIRCULAR 0.200 0 0 0 1
SC0229 CIRCULAR 0.200 0 0 0 1
SC0230 CIRCULAR 0.200 0 0 0 1
SC0231 CIRCULAR 0.200 0 0 0 1
SC0232 CIRCULAR 0.200 0 0 0 1
SC0233 CIRCULAR 0.200 0 0 0 1
SC0234 CIRCULAR 0.200 0 0 0 1
SC0235 CIRCULAR 0.200 0 0 0 1
SC0236 CIRCULAR 0.200 0 0 0 1
SC0237 CIRCULAR 0.200 0 0 0 1
SC0238 CIRCULAR 0.200 0 0 0 1
SC0239 CIRCULAR 0.200 0 0 0 1
SC0240 CIRCULAR 0.200 0 0 0 1
SC0241 CIRCULAR 0.600 0 0 0 1
SC0242 CIRCULAR 0.200 0 0 0 1
SC0243 CIRCULAR 0.200 0 0 0 1
SC0244 CIRCULAR 0.200 0 0 0 1
SC0245 CIRCULAR 0.200 0 0 0 1
SC0246 CIRCULAR 0.200 0 0 0 1
SC0247 CIRCULAR 0.200 0 0 0 1
SC0248 CIRCULAR 0.200 0 0 0 1
SC0249 CIRCULAR 0.200 0 0 0 1
SC0250 CIRCULAR 0.200 0 0 0 1
SC0251 CIRCULAR 0.200 0 0 0 1
SC0252 CIRCULAR 0.200 0 0 0 1
SC0253 CIRCULAR 0.200 0 0 0 1
SC0254 CIRCULAR 0.200 0 0 0 1
SC0255 CIRCULAR 0.200 0 0 0 1
SC0256 CIRCULAR 0.200 0 0 0 1
SC0257 CIRCULAR 0.200 0 0 0 1
SC0258 CIRCULAR 0.200 0 0 0 1
SC0259 CIRCULAR 0.200 0 0 0 1
SC0260 CIRCULAR 0.200 0 0 0 1
SC0261 CIRCULAR 0.200 0 0 0 1
SC0262 CIRCULAR 0.200 0 0 0 1
SC0263 CIRCULAR 0.200 0 0 0 1
SC0264 CIRCULAR 0.200 0 0 0 1
SC0265 CIRCULAR 0.200 0 0 0 1
SC0266 CIRCULAR 0.200 0 0 0 1
SC0267 CIRCULAR 0.200 0 0 0 1
SC0268 CIRCULAR 0.200 0 0 0 1
SC0269 CIRCULAR 0.200 0 0 0 1
SC0270 CIRCULAR 0.200 0 0 0 1
SC0271 CIRCULAR 0.200 0 0 0 1
SC0272 CIRCULAR 0.200 0 0 0 1
SC0273 CIRCULAR 0.200 0 0 0 1
SC0274 CIRCULAR 0.300 0 0 0 1
SC0275 CIRCULAR 0.200 0 0 0 1
SC0276 CIRCULAR 0.200 0 0 0 1
SC0277 CIRCULAR 0.200 0 0 0 1
SC0278 CIRCULAR 0.200 0 0 0 1
SC0279 CIRCULAR 0.200 0 0 0 1
SC0280 CIRCULAR 0.200 0 0 0 1
SC0281 CIRCULAR 0.200 0 0 0 1
SC0282 CIRCULAR 0.200 0 0 0 1
SC0283 CIRCULAR 0.200 0 0 0 1
SC0284 CIRCULAR 0.200 0 0 0 1
SC0285 CIRCULAR 0.200 0 0 0 1
SC0286 CIRCULAR 0.400 0 0 0 1
SC0287 CIRCULAR 0.400 0 0 0 1
SC0288 CIRCULAR 0.200 0 0 0 1
SC0289 CIRCULAR 0.200 0 0 0 1
SC0290 CIRCULAR 0.200 0 0 0 1
SC0291 CIRCULAR 0.200 0 0 0 1
SC0292 CIRCULAR 0.200 0 0 0 1
SC0293 CIRCULAR 0.300 0 0 0 1
SC0294 CIRCULAR 0.200 0 0 0 1
SC0295 CIRCULAR 0.200 0 0 0 1
SC0296 CIRCULAR 0.200 0 0 0 1
SC0297 CIRCULAR 0.200 0 0 0 1
SC0298 CIRCULAR 0.200 0 0 0 1
SC0299 CIRCULAR 0.200 0 0 0 1
SC0300 CIRCULAR 0.200 0 0 0 1
SC0301 CIRCULAR 0.200 0 0 0 1
SC0302 CIRCULAR 0.200 0 0 0 1
SC0303 CIRCULAR 0.200 0 0 0 1
SC0304 CIRCULAR 0.200 0 0 0 1
SC0305 CIRCULAR 0.200 0 0 0 1
SC0306 CIRCULAR 0.200 0 0 0 1
SC0307 CIRCULAR 0.200 0 0 0 1
SC0308 CIRCULAR 0.200 0 0 0 1
SC0309 CIRCULAR 0.200 0 0 0 1
SC0310 CIRCULAR 0.200 0 0 0 1
SC0311 CIRCULAR 0.200 0 0 0 1
SC0312 CIRCULAR 0.200 0 0 0 1
SC0313 CIRCULAR 0.200 0 0 0 1
SC0315 CIRCULAR 0.200 0 0 0 1
SC0316 CIRCULAR 0.200 0 0 0 1
SC0317 CIRCULAR 0.200 0 0 0 1
SC0318 CIRCULAR 0.200 0 0 0 1
SC0319 CIRCULAR 0.200 0 0 0 1
SC0321 CIRCULAR 0.200 0 0 0 1
SC0322 CIRCULAR 0.200 0 0 0 1
SC0323 CIRCULAR 0.200 0 0 0 1
SC0324 CIRCULAR 0.200 0 0 0 1
SC0325 CIRCULAR 0.200 0 0 0 1
SC0326 CIRCULAR 0.200 0 0 0 1
SC0327 CIRCULAR 0.200 0 0 0 1
SC0328 CIRCULAR 0.200 0 0 0 1
SC0329 CIRCULAR 0.200 0 0 0 1
SC0330 CIRCULAR 0.200 0 0 0 1
SC0331 CIRCULAR 0.200 0 0 0 1
SC0332 CIRCULAR 0.200 0 0 0 1
SC0333 CIRCULAR 0.200 0 0 0 1
SC0334 CIRCULAR 0.400 0 0 0 1
SC0335 CIRCULAR 0.200 0 0 0 1
SC0337 CIRCULAR 0.200 0 0 0 1
SC0338 CIRCULAR 0.200 0 0 0 1
SC0339 CIRCULAR 0.200 0 0 0 1
SC0340 CIRCULAR 0.200 0 0 0 1
SC0341 CIRCULAR 0.200 0 0 0 1
SC0342 CIRCULAR 0.200 0 0 0 1
SC0344 CIRCULAR 0.200 0 0 0 1
SC0345 CIRCULAR 0.200 0 0 0 1
SC0346 CIRCULAR 0.200 0 0 0 1
SC0347 CIRCULAR 0.200 0 0 0 1
SC0348 CIRCULAR 0.200 0 0 0 1
SC0349 CIRCULAR 0.200 0 0 0 1
SC0350 CIRCULAR 0.200 0 0 0 1
SC0352 CIRCULAR 0.200 0 0 0 1
SC0353 CIRCULAR 0.200 0 0 0 1
SC0354 CIRCULAR 0.200 0 0 0 1
SC0355 CIRCULAR 0.200 0 0 0 1
SC0356 CIRCULAR 0.200 0 0 0 1
SC0357 CIRCULAR 0.200 0 0 0 1
SC0358 CIRCULAR 0.250 0 0 0 1
SC0359 CIRCULAR 0.250 0 0 0 1
SC0360 CIRCULAR 0.200 0 0 0 1
SC0361 CIRCULAR 0.200 0 0 0 1
SC0362 CIRCULAR 0.200 0 0 0 1
SC0363 CIRCULAR 0.200 0 0 0 1
SC0364 CIRCULAR 0.200 0 0 0 1
SC0365 CIRCULAR 0.200 0 0 0 1
SC0366 CIRCULAR 0.200 0 0 0 1
SC0367 CIRCULAR 0.200 0 0 0 1
SC0368 CIRCULAR 0.200 0 0 0 1
SC0369 CIRCULAR 0.200 0 0 0 1
SC0370 CIRCULAR 0.200 0 0 0 1
SC0371 CIRCULAR 0.200 0 0 0 1
SC0372 CIRCULAR 0.200 0 0 0 1
SC0373 CIRCULAR 0.200 0 0 0 1
SC0374 CIRCULAR 0.200 0 0 0 1
SC0376 CIRCULAR 0.200 0 0 0 1
SC0377 CIRCULAR 0.200 0 0 0 1
SC0378 CIRCULAR 0.200 0 0 0 1
SC0379 CIRCULAR 0.200 0 0 0 1
SC0380 CIRCULAR 0.200 0 0 0 1
SC0381 CIRCULAR 0.200 0 0 0 1
SC0382 CIRCULAR 0.200 0 0 0 1
SC0383 CIRCULAR 0.200 0 0 0 1
SC0384 CIRCULAR 0.200 0 0 0 1
SC0385 CIRCULAR 0.200 0 0 0 1
SC0386 CIRCULAR 0.200 0 0 0 1
SC0387 CIRCULAR 0.200 0 0 0 1
SC0388 CIRCULAR 0.200 0 0 0 1
SC0389 CIRCULAR 0.200 0 0 0 1
SC0390 CIRCULAR 0.200 0 0 0 1
SC0391 CIRCULAR 0.200 0 0 0 1
SC0392 CIRCULAR 0.200 0 0 0 1
SC0393 CIRCULAR 0.200 0 0 0 1
SC0394 CIRCULAR 0.200 0 0 0 1
SC0395 CIRCULAR 0.250 0 0 0 1
SC0396 CIRCULAR 0.200 0 0 0 1
SC0397 CIRCULAR 0.200 0 0 0 1
SC0398 CIRCULAR 0.300 0 0 0 1
SC0399 CIRCULAR 0.200 0 0 0 1
SC0400 CIRCULAR 0.200 0 0 0 1
SC0401 CIRCULAR 0.200 0 0 0 1
SC0402 CIRCULAR 0.200 0 0 0 1
SC0403 CIRCULAR 0.200 0 0 0 1
SC0404 CIRCULAR 0.200 0 0 0 1
SC0405 CIRCULAR 0.200 0 0 0 1
SC0406 CIRCULAR 0.200 0 0 0 1
SC0407 CIRCULAR 0.200 0 0 0 1
SC0408 CIRCULAR 0.200 0 0 0 1
SC0409 CIRCULAR 0.200 0 0 0 1
SC0410 CIRCULAR 0.200 0 0 0 1
SC0411 CIRCULAR 0.200 0 0 0 1
SC0412 CIRCULAR 0.200 0 0 0 1
SC0413 CIRCULAR 0.200 0 0 0 1
SC0414 CIRCULAR 0.200 0 0 0 1
SC0415 CIRCULAR 0.200 0 0 0 1
SC0416 CIRCULAR 0.200 0 0 0 1
SC0417 CIRCULAR 0.200 0 0 0 1
SC0418 CIRCULAR 0.200 0 0 0 1
SC0419 CIRCULAR 0.200 0 0 0 1
SC0420 CIRCULAR 0.200 0 0 0 1
SC0421 CIRCULAR 0.200 0 0 0 1
SC0422 CIRCULAR 0.200 0 0 0 1
SC0423 CIRCULAR 0.200 0 0 0 1
SC0424 CIRCULAR 0.200 0 0 0 1
SC0425 CIRCULAR 0.200 0 0 0 1
SC0426 CIRCULAR 0.200 0 0 0 1
SC0427 CIRCULAR 0.200 0 0 0 1
SC0428 CIRCULAR 0.200 0 0 0 1
SC0429 CIRCULAR 0.200 0 0 0 1
SC0430 CIRCULAR 0.200 0 0 0 1
SC0431 CIRCULAR 0.200 0 0 0 1
SC0432 CIRCULAR 0.200 0 0 0 1
SC0433 CIRCULAR 0.200 0 0 0 1
SC0434 CIRCULAR 0.200 0 0 0 1
SC0435 CIRCULAR 0.200 0 0 0 1
SC0436 CIRCULAR 0.200 0 0 0 1
SC0437 CIRCULAR 0.200 0 0 0 1
SC0438 CIRCULAR 0.200 0 0 0 1
SC0439 CIRCULAR 0.200 0 0 0 1
SC0440 CIRCULAR 0.250 0 0 0 1
SC0441 CIRCULAR 0.200 0 0 0 1
SC0442 CIRCULAR 0.200 0 0 0 1
SC0443 CIRCULAR 0.200 0 0 0 1
SC0444 CIRCULAR 0.200 0 0 0 1
SC0445 CIRCULAR 0.200 0 0 0 1
SC0446 CIRCULAR 0.200 0 0 0 1
SC0447 CIRCULAR 0.250 0 0 0 1
SC0448 CIRCULAR 0.250 0 0 0 1
SC0449 CIRCULAR 0.200 0 0 0 1
SC0450 CIRCULAR 0.200 0 0 0 1
SC0451 CIRCULAR 0.200 0 0 0 1
SC0452 CIRCULAR 0.200 0 0 0 1
SC0453 CIRCULAR 0.200 0 0 0 1
SC0454 CIRCULAR 0.200 0 0 0 1
SC0455 CIRCULAR 0.200 0 0 0 1
SC0456 CIRCULAR 0.200 0 0 0 1
SC0457 CIRCULAR 0.200 0 0 0 1
SC0458 CIRCULAR 0.200 0 0 0 1
SC0459 CIRCULAR 0.200 0 0 0 1
SC0460 CIRCULAR 0.200 0 0 0 1
SC0461 CIRCULAR 0.200 0 0 0 1
SC0462 CIRCULAR 0.200 0 0 0 1
SC0463 CIRCULAR 0.200 0 0 0 1
SC0464 CIRCULAR 0.200 0 0 0 1
SC0465 CIRCULAR 0.200 0 0 0 1
SC0466 CIRCULAR 0.200 0 0 0 1
SC0467 CIRCULAR 0.200 0 0 0 1
SC0468 CIRCULAR 0.200 0 0 0 1
SC0469 CIRCULAR 0.200 0 0 0 1
SC0470 CIRCULAR 0.200 0 0 0 1
SC0471 CIRCULAR 0.200 0 0 0 1
SC0472 CIRCULAR 0.200 0 0 0 1
SC0473 CIRCULAR 0.200 0 0 0 1
SC0474 CIRCULAR 0.200 0 0 0 1
SC0475 CIRCULAR 0.200 0 0 0 1
SC0478 CIRCULAR 0.200 0 0 0 1
SC0479 CIRCULAR 0.200 0 0 0 1
SC0480 CIRCULAR 0.200 0 0 0 1
SC0481 CIRCULAR 0.200 0 0 0 1
SC0482 CIRCULAR 0.200 0 0 0 1
SC0483 CIRCULAR 0.200 0 0 0 1
SC0484 CIRCULAR 0.200 0 0 0 1
SC0486 CIRCULAR 0.200 0 0 0 1
SC0487 CIRCULAR 0.200 0 0 0 1
SC0488 CIRCULAR 0.300 0 0 0 1
SC0489 CIRCULAR 0.200 0 0 0 1
SC0490 CIRCULAR 0.200 0 0 0 1
SC0491 CIRCULAR 0.200 0 0 0 1
SC0492 CIRCULAR 0.200 0 0 0 1
SC0493 CIRCULAR 0.200 0 0 0 1
SC0494 CIRCULAR 0.200 0 0 0 1
SC0495 CIRCULAR 0.200 0 0 0 1
SC0496 CIRCULAR 0.200 0 0 0 1
SC0497 CIRCULAR 0.200 0 0 0 1
SC0498 CIRCULAR 0.200 0 0 0 1
SC0499 CIRCULAR 0.200 0 0 0 1
SC0500 CIRCULAR 0.200 0 0 0 1
SC0501 CIRCULAR 0.200 0 0 0 1
SC0502 CIRCULAR 0.200 0 0 0 1
SC0503 CIRCULAR 0.200 0 0 0 1
SC0504 CIRCULAR 0.200 0 0 0 1
SC0505 CIRCULAR 0.200 0 0 0 1
SC0506 CIRCULAR 0.200 0 0 0 1
SC0507 CIRCULAR 0.200 0 0 0 1
SC0508 CIRCULAR 0.200 0 0 0 1
SC0509 CIRCULAR 0.200 0 0 0 1
SC0510 CIRCULAR 0.200 0 0 0 1
SC0511 CIRCULAR 0.200 0 0 0 1
SC0512 CIRCULAR 0.200 0 0 0 1
SC0513 CIRCULAR 0.200 0 0 0 1
SC0514 CIRCULAR 0.200 0 0 0 1
SC0515 CIRCULAR 0.200 0 0 0 1
SC0516 CIRCULAR 0.200 0 0 0 1
SC0517 CIRCULAR 0.200 0 0 0 1
SC0518 CIRCULAR 0.200 0 0 0 1
SC0519 CIRCULAR 0.200 0 0 0 1
SC0520 CIRCULAR 0.200 0 0 0 1
SC0521 CIRCULAR 0.200 0 0 0 1
SC0522 CIRCULAR 0.200 0 0 0 1
SC0523 CIRCULAR 0.200 0 0 0 1
SC0524 CIRCULAR 0.200 0 0 0 1
SC0525 CIRCULAR 0.400 0 0 0 1
SC0526 CIRCULAR 0.200 0 0 0 1
SC0527 CIRCULAR 0.200 0 0 0 1
SC0528 CIRCULAR 0.200 0 0 0 1
SC0529 CIRCULAR 0.200 0 0 0 1
SC0530 CIRCULAR 0.200 0 0 0 1
SC0531 CIRCULAR 0.200 0 0 0 1
SC0532 CIRCULAR 0.200 0 0 0 1
SC0533 CIRCULAR 0.200 0 0 0 1
SC0534 CIRCULAR 0.200 0 0 0 1
SC0535 CIRCULAR 0.200 0 0 0 1
SC0536 CIRCULAR 0.200 0 0 0 1
SC0537 CIRCULAR 0.200 0 0 0 1
SC0538 CIRCULAR 0.200 0 0 0 1
SC0539 CIRCULAR 0.200 0 0 0 1
SC0540 CIRCULAR 0.200 0 0 0 1
SC0541 CIRCULAR 0.200 0 0 0 1
SC0542 CIRCULAR 0.200 0 0 0 1
SC0543 CIRCULAR 0.200 0 0 0 1
SC0544 CIRCULAR 0.200 0 0 0 1
SC0546 CIRCULAR 0.200 0 0 0 1
SC0547 CIRCULAR 0.200 0 0 0 1
SC0548 CIRCULAR 0.200 0 0 0 1
SC0549 CIRCULAR 0.200 0 0 0 1
SC0550 CIRCULAR 0.200 0 0 0 1
SC0551 CIRCULAR 0.200 0 0 0 1
SC0552 CIRCULAR 0.200 0 0 0 1
SC0553 CIRCULAR 0.200 0 0 0 1
SC0554 CIRCULAR 0.200 0 0 0 1
SC0555 CIRCULAR 0.200 0 0 0 1
SC0556 CIRCULAR 0.200 0 0 0 1
SC0557 CIRCULAR 0.200 0 0 0 1
SC0558 CIRCULAR 0.200 0 0 0 1
SC0559 CIRCULAR 0.200 0 0 0 1
SC0560 CIRCULAR 0.200 0 0 0 1
SC0561 CIRCULAR 0.200 0 0 0 1
SC0562 CIRCULAR 0.250 0 0 0 1
SC0563 CIRCULAR 0.400 0 0 0 1
SC0564 CIRCULAR 0.200 0 0 0 1
SC0565 CIRCULAR 0.200 0 0 0 1
SC0566 CIRCULAR 0.200 0 0 0 1
SC0567 CIRCULAR 0.200 0 0 0 1
SC0568 CIRCULAR 0.200 0 0 0 1
SC0569 CIRCULAR 0.200 0 0 0 1
SC0570 CIRCULAR 0.200 0 0 0 1
SC0571 CIRCULAR 0.200 0 0 0 1
SC0572 CIRCULAR 0.200 0 0 0 1
SC0573 CIRCULAR 0.200 0 0 0 1
SC0574 CIRCULAR 0.200 0 0 0 1
SC0575 CIRCULAR 0.200 0 0 0 1
SC0576 CIRCULAR 0.200 0 0 0 1
SC0577 CIRCULAR 0.200 0 0 0 1
SC0578 CIRCULAR 0.200 0 0 0 1
SC0579 CIRCULAR 0.200 0 0 0 1
SC0580 CIRCULAR 0.200 0 0 0 1
SC0581 CIRCULAR 0.200 0 0 0 1
SC0582 CIRCULAR 0.200 0 0 0 1
SC0583 CIRCULAR 0.200 0 0 0 1
SC0584 CIRCULAR 0.200 0 0 0 1
SC0585 CIRCULAR 0.200 0 0 0 1
SC0586 CIRCULAR 0.200 0 0 0 1
SC0587 CIRCULAR 0.200 0 0 0 1
SC0588 CIRCULAR 0.200 0 0 0 1
SC0589 CIRCULAR 0.200 0 0 0 1
SC0590 CIRCULAR 0.200 0 0 0 1
SC0591 CIRCULAR 0.200 0 0 0 1
SC0592 CIRCULAR 0.200 0 0 0 1
SC0593 CIRCULAR 0.200 0 0 0 1
SC0594 CIRCULAR 0.300 0 0 0 1
SC0595 CIRCULAR 0.200 0 0 0 1
SC0596 CIRCULAR 0.250 0 0 0 1
SC0597 CIRCULAR 0.200 0 0 0 1
SC0598 CIRCULAR 0.200 0 0 0 1
SC0599 CIRCULAR 0.200 0 0 0 1
SC0600 CIRCULAR 0.200 0 0 0 1
SC0601 CIRCULAR 0.200 0 0 0 1
SC0602 CIRCULAR 0.200 0 0 0 1
SC0603 CIRCULAR 0.200 0 0 0 1
SC0604 CIRCULAR 0.200 0 0 0 1
SC0605 CIRCULAR 0.200 0 0 0 1
SC0606 CIRCULAR 0.200 0 0 0 1
SC0607 CIRCULAR 0.200 0 0 0 1
SC0608 CIRCULAR 0.200 0 0 0 1
SC0609 CIRCULAR 0.200 0 0 0 1
SC0610 CIRCULAR 0.200 0 0 0 1
SC0611 CIRCULAR 0.200 0 0 0 1
SC0612 CIRCULAR 0.200 0 0 0 1
SC0613 CIRCULAR 0.200 0 0 0 1
SC0614 CIRCULAR 0.200 0 0 0 1
SC0615 CIRCULAR 0.200 0 0 0 1
SC0616 CIRCULAR 0.200 0 0 0 1
SC0617 CIRCULAR 0.200 0 0 0 1
SC0618 CIRCULAR 0.200 0 0 0 1
SC0619 CIRCULAR 0.200 0 0 0 1
SC0620 CIRCULAR 0.200 0 0 0 1
SC0621 CIRCULAR 0.200 0 0 0 1
SC0622 CIRCULAR 0.200 0 0 0 1
SC0623 CIRCULAR 0.200 0 0 0 1
SC0624 CIRCULAR 0.200 0 0 0 1
SC0625 CIRCULAR 0.200 0 0 0 1
SC0626 CIRCULAR 0.200 0 0 0 1
SC0627 CIRCULAR 0.200 0 0 0 1
SC0628 CIRCULAR 0.200 0 0 0 1
SC0629 CIRCULAR 0.200 0 0 0 1
SC0630 CIRCULAR 0.200 0 0 0 1
SC0631 CIRCULAR 0.200 0 0 0 1
SC0632 CIRCULAR 0.200 0 0 0 1
SC0633 CIRCULAR 0.200 0 0 0 1
SC0634 CIRCULAR 0.200 0 0 0 1
SC0635 CIRCULAR 0.200 0 0 0 1
SC0636 CIRCULAR 0.200 0 0 0 1
SC0637 CIRCULAR 0.200 0 0 0 1
SC0638 CIRCULAR 0.200 0 0 0 1
SC0640 CIRCULAR 0.200 0 0 0 1
SC0641 CIRCULAR 0.200 0 0 0 1
SC0642 CIRCULAR 0.200 0 0 0 1
SC0643 CIRCULAR 0.200 0 0 0 1
SC0644 CIRCULAR 0.200 0 0 0 1
SC0645 CIRCULAR 0.300 0 0 0 1
SC0646 CIRCULAR 0.200 0 0 0 1
SC0647 CIRCULAR 0.200 0 0 0 1
SC0648 CIRCULAR 0.200 0 0 0 1
SC0649 CIRCULAR 0.200 0 0 0 1
SC0650 CIRCULAR 0.200 0 0 0 1
SC0651 CIRCULAR 0.200 0 0 0 1
SC0652 CIRCULAR 0.200 0 0 0 1
SC0653 CIRCULAR 0.250 0 0 0 1
SC0654 CIRCULAR 0.250 0 0 0 1
SC0655 CIRCULAR 0.200 0 0 0 1
SC0656 CIRCULAR 0.200 0 0 0 1
SC0657 CIRCULAR 0.200 0 0 0 1
SC0658 CIRCULAR 0.200 0 0 0 1
SC0659 CIRCULAR 0.200 0 0 0 1
SC0660 CIRCULAR 0.200 0 0 0 1
SC0661 CIRCULAR 0.200 0 0 0 1
SC0662 CIRCULAR 0.200 0 0 0 1
SC0663 CIRCULAR 0.200 0 0 0 1
SC0664 CIRCULAR 0.200 0 0 0 1
SC0665 CIRCULAR 0.200 0 0 0 1
SC0666 CIRCULAR 0.200 0 0 0 1
SC0667 CIRCULAR 0.200 0 0 0 1
SC0668 CIRCULAR 0.200 0 0 0 1
SC0669 CIRCULAR 0.200 0 0 0 1
SC0670 CIRCULAR 0.200 0 0 0 1
SC0671 CIRCULAR 0.200 0 0 0 1
SC0672 CIRCULAR 0.200 0 0 0 1
SC0673 CIRCULAR 0.250 0 0 0 1
SC0674 CIRCULAR 0.200 0 0 0 1
SC0675 CIRCULAR 0.200 0 0 0 1
SC0676 CIRCULAR 0.200 0 0 0 1
SC0677 CIRCULAR 0.200 0 0 0 1
SC0678 CIRCULAR 0.200 0 0 0 1
SC0679 CIRCULAR 0.200 0 0 0 1
SC0680 CIRCULAR 0.200 0 0 0 1
SC0681 CIRCULAR 0.300 0 0 0 1
SC0682 CIRCULAR 0.200 0 0 0 1
SC0685 CIRCULAR 0.200 0 0 0 1
SC0686 CIRCULAR 0.200 0 0 0 1
SC0687 CIRCULAR 0.200 0 0 0 1
SC0688 CIRCULAR 0.200 0 0 0 1
SC0689 CIRCULAR 0.200 0 0 0 1
SC0690 CIRCULAR 0.200 0 0 0 1
SC0691 CIRCULAR 0.200 0 0 0 1
SC0692 CIRCULAR 0.200 0 0 0 1
SC0693 CIRCULAR 0.200 0 0 0 1
SC0694 CIRCULAR 0.200 0 0 0 1
SC0695 CIRCULAR 0.300 0 0 0 1
SC0696 CIRCULAR 0.200 0 0 0 1
SC0697 CIRCULAR 0.200 0 0 0 1
SC0698 CIRCULAR 0.200 0 0 0 1
SC0699 CIRCULAR 0.200 0 0 0 1
SC0700 CIRCULAR 0.200 0 0 0 1
SC0701 CIRCULAR 0.200 0 0 0 1
SC0702 CIRCULAR 0.200 0 0 0 1
SC0703 CIRCULAR 0.200 0 0 0 1
SC0704 CIRCULAR 0.200 0 0 0 1
SC0705 CIRCULAR 0.200 0 0 0 1
SC0706 CIRCULAR 0.200 0 0 0 1
SC0707 CIRCULAR 0.200 0 0 0 1
SC0708 CIRCULAR 0.200 0 0 0 1
SC0709 CIRCULAR 0.200 0 0 0 1
SC0710 CIRCULAR 0.200 0 0 0 1
SC0711 CIRCULAR 0.200 0 0 0 1
SC0712 CIRCULAR 0.200 0 0 0 1
SC0713 CIRCULAR 0.200 0 0 0 1
SC0714 CIRCULAR 0.200 0 0 0 1
SC0715 CIRCULAR 0.200 0 0 0 1
SC0716 CIRCULAR 0.200 0 0 0 1
SC0717 CIRCULAR 0.200 0 0 0 1
SC0718 CIRCULAR 0.200 0 0 0 1
SC0719 CIRCULAR 0.200 0 0 0 1
SC0720 CIRCULAR 0.200 0 0 0 1
SC0721 CIRCULAR 0.200 0 0 0 1
SC0722 CIRCULAR 0.200 0 0 0 1
SC0723 CIRCULAR 0.200 0 0 0 1
SC0724 CIRCULAR 0.200 0 0 0 1
SC0725 CIRCULAR 0.200 0 0 0 1
SC0726 CIRCULAR 0.200 0 0 0 1
SC0727 CIRCULAR 0.200 0 0 0 1
SC0729 CIRCULAR 0.200 0 0 0 1
SC0730 CIRCULAR 0.200 0 0 0 1
SC0731 CIRCULAR 0.200 0 0 0 1
SC0732 CIRCULAR 0.200 0 0 0 1
SC0733 CIRCULAR 0.200 0 0 0 1
SC0734 CIRCULAR 0.200 0 0 0 1
SC0735 CIRCULAR 0.200 0 0 0 1
SC0736 CIRCULAR 0.200 0 0 0 1
SC0737 CIRCULAR 0.200 0 0 0 1
SC0738 CIRCULAR 0.200 0 0 0 1
SC0739 CIRCULAR 0.200 0 0 0 1
SC0740 CIRCULAR 0.200 0 0 0 1
SC0741 CIRCULAR 0.200 0 0 0 1
SC0742 CIRCULAR 0.200 0 0 0 1
SC0743 CIRCULAR 0.200 0 0 0 1
SC0744 CIRCULAR 0.200 0 0 0 1
SC0745 CIRCULAR 0.200 0 0 0 1
SC0746 CIRCULAR 0.200 0 0 0 1
SC0749 CIRCULAR 0.200 0 0 0 1
SC0750 CIRCULAR 0.200 0 0 0 1
SC0751 CIRCULAR 0.200 0 0 0 1
SC0752 CIRCULAR 0.200 0 0 0 1
SC0753 CIRCULAR 0.200 0 0 0 1
SC0754 CIRCULAR 0.200 0 0 0 1
SC0755 CIRCULAR 0.200 0 0 0 1
SC0756 CIRCULAR 0.200 0 0 0 1
SC0757 CIRCULAR 0.200 0 0 0 1
SC0758 CIRCULAR 0.200 0 0 0 1
SC0760 CIRCULAR 0.200 0 0 0 1
SC0761 CIRCULAR 0.200 0 0 0 1
SC0762 CIRCULAR 0.200 0 0 0 1
SC0763 CIRCULAR 0.200 0 0 0 1
SC0764 CIRCULAR 0.200 0 0 0 1
SC0765 CIRCULAR 0.200 0 0 0 1
SC0766 CIRCULAR 0.200 0 0 0 1
SC0767 CIRCULAR 0.200 0 0 0 1
SC0768 CIRCULAR 0.200 0 0 0 1
SC0769 CIRCULAR 0.200 0 0 0 1
SC0770 CIRCULAR 0.200 0 0 0 1
SC0771 CIRCULAR 0.200 0 0 0 1
SC0772 CIRCULAR 0.200 0 0 0 1
SC0773 CIRCULAR 0.200 0 0 0 1
SC0774 CIRCULAR 0.200 0 0 0 1
SC0775 CIRCULAR 0.200 0 0 0 1
SC0776 CIRCULAR 0.200 0 0 0 1
SC0777 CIRCULAR 0.200 0 0 0 1
SC0778 CIRCULAR 0.200 0 0 0 1
SC0779 CIRCULAR 0.200 0 0 0 1
SC0780 CIRCULAR 0.200 0 0 0 1
SC0781 CIRCULAR 0.200 0 0 0 1
SC0782 CIRCULAR 0.200 0 0 0 1
SC0783 CIRCULAR 0.200 0 0 0 1
SC0784 CIRCULAR 0.200 0 0 0 1
SC0785 CIRCULAR 0.200 0 0 0 1
SC0786 CIRCULAR 0.200 0 0 0 1
SC0787 CIRCULAR 0.200 0 0 0 1
SC0788 CIRCULAR 0.200 0 0 0 1
SC0789 CIRCULAR 0.200 0 0 0 1
SC0790 CIRCULAR 0.200 0 0 0 1
SC0791 CIRCULAR 0.200 0 0 0 1
SC0792 CIRCULAR 0.200 0 0 0 1
SC0793 CIRCULAR 0.200 0 0 0 1
SC0794 CIRCULAR 0.200 0 0 0 1
SC0795 CIRCULAR 0.200 0 0 0 1
SC0796 CIRCULAR 0.200 0 0 0 1
SC0797 CIRCULAR 0.200 0 0 0 1
SC0798 CIRCULAR 0.200 0 0 0 1
SC0799 CIRCULAR 0.200 0 0 0 1
SC0800 CIRCULAR 0.200 0 0 0 1
SC0801 CIRCULAR 0.200 0 0 0 1
SC0802 CIRCULAR 0.300 0 0 0 1
SC0803 CIRCULAR 0.200 0 0 0 1
SC0804 CIRCULAR 0.200 0 0 0 1
SC0805 CIRCULAR 0.200 0 0 0 1
SC0806 CIRCULAR 0.200 0 0 0 1
SC0807 CIRCULAR 0.200 0 0 0 1
SC0808 CIRCULAR 0.200 0 0 0 1
SC0809 CIRCULAR 0.200 0 0 0 1
SC0810 CIRCULAR 0.200 0 0 0 1
SC0811 CIRCULAR 0.200 0 0 0 1
SC0812 CIRCULAR 0.200 0 0 0 1
SC0813 CIRCULAR 0.200 0 0 0 1
SC0814 CIRCULAR 0.200 0 0 0 1
SC0815 CIRCULAR 0.200 0 0 0 1
SC0816 CIRCULAR 0.200 0 0 0 1
SC0817 CIRCULAR 0.200 0 0 0 1
SC0818 CIRCULAR 0.200 0 0 0 1
SC0819 CIRCULAR 0.200 0 0 0 1
SC0820 CIRCULAR 0.200 0 0 0 1
SC0821 CIRCULAR 0.200 0 0 0 1
SC0822 CIRCULAR 0.250 0 0 0 1
SC0824 CIRCULAR 0.200 0 0 0 1
SC0825 CIRCULAR 0.200 0 0 0 1
SC0826 CIRCULAR 0.200 0 0 0 1
SC0827 CIRCULAR 0.200 0 0 0 1
SC0828 CIRCULAR 0.200 0 0 0 1
SC0829 CIRCULAR 0.200 0 0 0 1
SC0830 CIRCULAR 0.200 0 0 0 1
SC0831 CIRCULAR 0.200 0 0 0 1
SC0832 CIRCULAR 0.300 0 0 0 1
SC0833 CIRCULAR 0.200 0 0 0 1
SC0834 CIRCULAR 0.300 0 0 0 1
SC0835 CIRCULAR 0.200 0 0 0 1
SC0836 CIRCULAR 0.200 0 0 0 1
SC0837 CIRCULAR 0.250 0 0 0 1
SC0838 CIRCULAR 0.200 0 0 0 1
SC0839 CIRCULAR 0.200 0 0 0 1
SC0840 CIRCULAR 0.200 0 0 0 1
SC0841 CIRCULAR 0.200 0 0 0 1
SC0842 CIRCULAR 0.200 0 0 0 1
SC0843 CIRCULAR 0.200 0 0 0 1
SC0844 CIRCULAR 0.200 0 0 0 1
SC0845 CIRCULAR 0.200 0 0 0 1
SC0846 CIRCULAR 0.200 0 0 0 1
SC0847 CIRCULAR 0.200 0 0 0 1
SC0848 CIRCULAR 0.200 0 0 0 1
SC0849 CIRCULAR 0.200 0 0 0 1
SC0851 CIRCULAR 0.200 0 0 0 1
SC0852 CIRCULAR 0.200 0 0 0 1
SC0853 CIRCULAR 0.200 0 0 0 1
SC0854 CIRCULAR 0.200 0 0 0 1
SC0855 CIRCULAR 0.200 0 0 0 1
SC0856 CIRCULAR 0.250 0 0 0 1
SC0857 CIRCULAR 0.200 0 0 0 1
SC0858 CIRCULAR 0.200 0 0 0 1
SC0859 CIRCULAR 0.200 0 0 0 1
SC0860 CIRCULAR 0.200 0 0 0 1
SC0861 CIRCULAR 0.200 0 0 0 1
SC0862 CIRCULAR 0.200 0 0 0 1
SC0864 CIRCULAR 0.200 0 0 0 1
SC0865 CIRCULAR 0.200 0 0 0 1
SC0866 CIRCULAR 0.200 0 0 0 1
SC0867 CIRCULAR 0.200 0 0 0 1
SC0868 CIRCULAR 0.200 0 0 0 1
SC0869 CIRCULAR 0.200 0 0 0 1
SC0870 CIRCULAR 0.200 0 0 0 1
SC0871 CIRCULAR 0.200 0 0 0 1
SC0872 CIRCULAR 0.200 0 0 0 1
SC0873 CIRCULAR 0.200 0 0 0 1
SC0874 CIRCULAR 0.200 0 0 0 1
SC0875 CIRCULAR 0.200 0 0 0 1
SC0876 CIRCULAR 0.200 0 0 0 1
SC0877 CIRCULAR 0.200 0 0 0 1
SC0878 CIRCULAR 0.200 0 0 0 1
SC0879 CIRCULAR 0.200 0 0 0 1
SC0880 CIRCULAR 0.200 0 0 0 1
SC0881 CIRCULAR 0.200 0 0 0 1
SC0882 CIRCULAR 0.200 0 0 0 1
SC0883 CIRCULAR 0.200 0 0 0 1
SC0884 CIRCULAR 0.200 0 0 0 1
SC0885 CIRCULAR 0.200 0 0 0 1
SC0886 CIRCULAR 0.200 0 0 0 1
SC0887 CIRCULAR 0.200 0 0 0 1
SC0888 CIRCULAR 0.200 0 0 0 1
SC0889 CIRCULAR 0.200 0 0 0 1
SC0890 CIRCULAR 0.200 0 0 0 1
SC0891 CIRCULAR 0.200 0 0 0 1
SC0892 CIRCULAR 0.200 0 0 0 1
SC0893 CIRCULAR 0.200 0 0 0 1
SC0894 CIRCULAR 0.200 0 0 0 1
SC0895 CIRCULAR 0.200 0 0 0 1
SC0896 CIRCULAR 0.200 0 0 0 1
SC0897 CIRCULAR 0.200 0 0 0 1
SC0898 CIRCULAR 0.200 0 0 0 1
SC0899 CIRCULAR 0.200 0 0 0 1
SC0900 CIRCULAR 0.200 0 0 0 1
SC0901 CIRCULAR 0.200 0 0 0 1
SC0902 CIRCULAR 0.200 0 0 0 1
SC0903 CIRCULAR 0.200 0 0 0 1
SC0904 CIRCULAR 0.200 0 0 0 1
SC0905 CIRCULAR 0.200 0 0 0 1
SC0906 CIRCULAR 0.200 0 0 0 1
SC0907 CIRCULAR 0.200 0 0 0 1
SC0908 CIRCULAR 0.200 0 0 0 1
SC0909 CIRCULAR 0.200 0 0 0 1
SC0910 CIRCULAR 0.200 0 0 0 1
SC0911 CIRCULAR 0.200 0 0 0 1
SC0912 CIRCULAR 0.200 0 0 0 1
SC0913 CIRCULAR 0.200 0 0 0 1
SC0914 CIRCULAR 0.200 0 0 0 1
SC0915 CIRCULAR 0.200 0 0 0 1
SC0916 CIRCULAR 0.200 0 0 0 1
SC0917 CIRCULAR 0.200 0 0 0 1
SC0918 CIRCULAR 0.200 0 0 0 1
SC0919 CIRCULAR 0.200 0 0 0 1
SC0920 CIRCULAR 0.200 0 0 0 1
SC0921 CIRCULAR 0.200 0 0 0 1
SC0922 CIRCULAR 0.200 0 0 0 1
SC0923 CIRCULAR 0.200 0 0 0 1
SC0924 CIRCULAR 0.200 0 0 0 1
SC0925 CIRCULAR 0.200 0 0 0 1
SC0926 CIRCULAR 0.200 0 0 0 1
SC0927 CIRCULAR 0.200 0 0 0 1
SC0928 CIRCULAR 0.200 0 0 0 1
SC0929 CIRCULAR 0.200 0 0 0 1
SC0930 CIRCULAR 0.200 0 0 0 1
SC0931 CIRCULAR 0.200 0 0 0 1
SC0932 CIRCULAR 0.200 0 0 0 1
SC0933 CIRCULAR 0.200 0 0 0 1
SC0934 CIRCULAR 0.200 0 0 0 1
SC0935 CIRCULAR 0.200 0 0 0 1
SC0936 CIRCULAR 0.200 0 0 0 1
SC0937 CIRCULAR 0.200 0 0 0 1
SC0938 CIRCULAR 0.200 0 0 0 1
SC0939 CIRCULAR 0.200 0 0 0 1
SC0940 CIRCULAR 0.200 0 0 0 1
SC0941 CIRCULAR 0.200 0 0 0 1
SC0942 CIRCULAR 0.200 0 0 0 1
SC0943 CIRCULAR 0.200 0 0 0 1
SC0944 CIRCULAR 0.200 0 0 0 1
SC0945 CIRCULAR 0.200 0 0 0 1
SC0946 CIRCULAR 0.200 0 0 0 1
SC0947 CIRCULAR 0.200 0 0 0 1
SC0948 CIRCULAR 0.200 0 0 0 1
SC0949 CIRCULAR 0.200 0 0 0 1
SC0950 CIRCULAR 0.200 0 0 0 1
SC0951 CIRCULAR 0.200 0 0 0 1
SC0952 CIRCULAR 0.200 0 0 0 1
SC0953 CIRCULAR 0.200 0 0 0 1
SC0954 CIRCULAR 0.200 0 0 0 1
SC0955 CIRCULAR 0.200 0 0 0 1
SC0956 CIRCULAR 0.200 0 0 0 1
SC0957 CIRCULAR 0.200 0 0 0 1
SC0958 CIRCULAR 0.200 0 0 0 1
SC0959 CIRCULAR 0.200 0 0 0 1
SC0960 CIRCULAR 0.200 0 0 0 1
SC0961 CIRCULAR 0.200 0 0 0 1
SC0962 CIRCULAR 0.200 0 0 0 1
SC0963 CIRCULAR 0.200 0 0 0 1
SC0964 CIRCULAR 0.200 0 0 0 1
SC0965 CIRCULAR 0.200 0 0 0 1
SC0966 CIRCULAR 0.200 0 0 0 1
SC0967 CIRCULAR 0.200 0 0 0 1
SC0968 CIRCULAR 0.200 0 0 0 1
SC0969 CIRCULAR 0.200 0 0 0 1
SC0971 CIRCULAR 0.200 0 0 0 1
SC0972 CIRCULAR 0.250 0 0 0 1
SC0973 CIRCULAR 0.200 0 0 0 1
SC0974 CIRCULAR 0.200 0 0 0 1
SC0975 CIRCULAR 0.200 0 0 0 1
SC0976 CIRCULAR 0.200 0 0 0 1
SC0977 CIRCULAR 0.200 0 0 0 1
SC0978 CIRCULAR 0.200 0 0 0 1
SC0979 CIRCULAR 0.200 0 0 0 1
SC0980 CIRCULAR 0.200 0 0 0 1
SC0981 CIRCULAR 0.200 0 0 0 1
SC0982 CIRCULAR 0.200 0 0 0 1
SC0983 CIRCULAR 0.200 0 0 0 1
SC0984 CIRCULAR 0.200 0 0 0 1
SC0985 CIRCULAR 0.200 0 0 0 1
SC0986 CIRCULAR 0.200 0 0 0 1
SC0987 CIRCULAR 0.200 0 0 0 1
SC0988 CIRCULAR 0.200 0 0 0 1
SC0989 CIRCULAR 0.200 0 0 0 1
SC0990 CIRCULAR 0.200 0 0 0 1
SC0991 CIRCULAR 0.200 0 0 0 1
SC0992 CIRCULAR 0.200 0 0 0 1
SC0993 CIRCULAR 0.200 0 0 0 1
SC0994 CIRCULAR 0.200 0 0 0 1
SC0995 CIRCULAR 0.200 0 0 0 1
SC0996 CIRCULAR 0.200 0 0 0 1
SC0997 CIRCULAR 0.200 0 0 0 1
SC0998 CIRCULAR 0.200 0 0 0 1
SC0999 CIRCULAR 0.200 0 0 0 1
SC1000 CIRCULAR 0.200 0 0 0 1
SC1001 CIRCULAR 0.200 0 0 0 1
SC1002 CIRCULAR 0.200 0 0 0 1
SC1003 CIRCULAR 0.200 0 0 0 1
SC1004 CIRCULAR 0.200 0 0 0 1
SC1005 CIRCULAR 0.200 0 0 0 1
SC1006 CIRCULAR 0.200 0 0 0 1
SC1007 CIRCULAR 0.200 0 0 0 1
SC1008 CIRCULAR 0.200 0 0 0 1
SC1009 CIRCULAR 0.200 0 0 0 1
SC1010 CIRCULAR 0.200 0 0 0 1
SC1011 CIRCULAR 0.200 0 0 0 1
SC1012 CIRCULAR 0.200 0 0 0 1
SC1013 CIRCULAR 0.200 0 0 0 1
SC1014 CIRCULAR 0.200 0 0 0 1
SC1015 CIRCULAR 0.200 0 0 0 1
SC1016 CIRCULAR 0.200 0 0 0 1
SC1017 CIRCULAR 0.200 0 0 0 1
SC1018 CIRCULAR 0.200 0 0 0 1
SC1019 CIRCULAR 0.200 0 0 0 1
SC1020 CIRCULAR 0.200 0 0 0 1
SC1021 CIRCULAR 0.200 0 0 0 1
SC1022 CIRCULAR 0.200 0 0 0 1
SC1023 CIRCULAR 0.200 0 0 0 1
SC1024 CIRCULAR 0.200 0 0 0 1
SC1025 CIRCULAR 0.200 0 0 0 1
SC1026 CIRCULAR 0.200 0 0 0 1
SC1028 CIRCULAR 0.200 0 0 0 1
SC1029 CIRCULAR 0.200 0 0 0 1
SC1030 CIRCULAR 0.200 0 0 0 1
SC1031 CIRCULAR 0.200 0 0 0 1
SC1032 CIRCULAR 0.200 0 0 0 1
SC1033 CIRCULAR 0.200 0 0 0 1
SC1034 CIRCULAR 0.200 0 0 0 1
SC1035 CIRCULAR 0.200 0 0 0 1
SC1036 CIRCULAR 0.200 0 0 0 1
SC1037 CIRCULAR 0.200 0 0 0 1
SC1038 CIRCULAR 0.200 0 0 0 1
SC1039 CIRCULAR 0.200 0 0 0 1
SC1040 CIRCULAR 0.200 0 0 0 1
SC1041 CIRCULAR 0.200 0 0 0 1
SC1042 CIRCULAR 0.200 0 0 0 1
SC1043 CIRCULAR 0.200 0 0 0 1
SC1044 CIRCULAR 0.200 0 0 0 1
SC1045 CIRCULAR 0.200 0 0 0 1
SC1046 CIRCULAR 0.200 0 0 0 1
SC1047 CIRCULAR 0.200 0 0 0 1
SC1048 CIRCULAR 0.200 0 0 0 1
SC1049 CIRCULAR 0.200 0 0 0 1
SC1050 CIRCULAR 0.200 0 0 0 1
SC1051 CIRCULAR 0.200 0 0 0 1
SC1052 CIRCULAR 0.200 0 0 0 1
SC1053 CIRCULAR 0.200 0 0 0 1
SC1054 CIRCULAR 0.200 0 0 0 1
SC1055 CIRCULAR 0.200 0 0 0 1
SC1056 CIRCULAR 0.200 0 0 0 1
SC1057 CIRCULAR 0.200 0 0 0 1
SC1058 CIRCULAR 0.200 0 0 0 1
SC1059 CIRCULAR 0.200 0 0 0 1
SC1060 CIRCULAR 0.200 0 0 0 1
SC1061 CIRCULAR 0.200 0 0 0 1
SC1062 CIRCULAR 0.200 0 0 0 1
SC1063 CIRCULAR 0.200 0 0 0 1
SC1064 CIRCULAR 0.200 0 0 0 1
SC1065 CIRCULAR 0.200 0 0 0 1
SC1066 CIRCULAR 0.200 0 0 0 1
SC1067 CIRCULAR 0.200 0 0 0 1
SC1068 CIRCULAR 0.200 0 0 0 1
SC1069 CIRCULAR 0.200 0 0 0 1
SC1070 CIRCULAR 0.200 0 0 0 1
SC1071 CIRCULAR 0.200 0 0 0 1
SC1072 CIRCULAR 0.200 0 0 0 1
SC1073 CIRCULAR 0.200 0 0 0 1
SC1075 CIRCULAR 0.200 0 0 0 1
SC1076 CIRCULAR 0.200 0 0 0 1
SC1077 CIRCULAR 0.200 0 0 0 1
SC1078 CIRCULAR 0.200 0 0 0 1
SC1079 CIRCULAR 0.200 0 0 0 1
SC1080 CIRCULAR 0.200 0 0 0 1
SC1081 CIRCULAR 0.200 0 0 0 1
SC1082 CIRCULAR 0.200 0 0 0 1
SC1083 CIRCULAR 0.200 0 0 0 1
SC1084 CIRCULAR 0.200 0 0 0 1
SC1085 CIRCULAR 0.200 0 0 0 1
SC1086 CIRCULAR 0.200 0 0 0 1
SC1087 CIRCULAR 0.200 0 0 0 1
SC1088 CIRCULAR 0.200 0 0 0 1
SC1089 CIRCULAR 0.200 0 0 0 1
SC1090 CIRCULAR 0.200 0 0 0 1
SC1091 CIRCULAR 0.200 0 0 0 1
SC1092 CIRCULAR 0.200 0 0 0 1
SC1093 CIRCULAR 0.200 0 0 0 1
SC1094 CIRCULAR 0.200 0 0 0 1
SC1095 CIRCULAR 0.200 0 0 0 1
SC1096 CIRCULAR 0.200 0 0 0 1
SC1097 CIRCULAR 0.200 0 0 0 1
SC1098 CIRCULAR 0.200 0 0 0 1
SC1099 CIRCULAR 0.200 0 0 0 1
SC1100 CIRCULAR 0.200 0 0 0 1
SC1101 CIRCULAR 0.200 0 0 0 1
SC1102 CIRCULAR 0.200 0 0 0 1
SC1103 CIRCULAR 0.200 0 0 0 1
SC1104 CIRCULAR 0.200 0 0 0 1
SC1105 CIRCULAR 0.200 0 0 0 1
SC1106 CIRCULAR 0.200 0 0 0 1
SC1107 CIRCULAR 0.200 0 0 0 1
SC1108 CIRCULAR 0.200 0 0 0 1
SC1109 CIRCULAR 0.200 0 0 0 1
SC1110 CIRCULAR 0.200 0 0 0 1
SC1111 CIRCULAR 0.200 0 0 0 1
SC1112 CIRCULAR 0.200 0 0 0 1
SC1113 CIRCULAR 0.200 0 0 0 1
SC1114 CIRCULAR 0.200 0 0 0 1
SC1115 CIRCULAR 0.200 0 0 0 1
SC1116 CIRCULAR 0.200 0 0 0 1
SC1117 CIRCULAR 0.200 0 0 0 1
SC1118 CIRCULAR 0.200 0 0 0 1
SC1119 CIRCULAR 0.200 0 0 0 1
SC1120 CIRCULAR 0.200 0 0 0 1
SC1121 CIRCULAR 0.200 0 0 0 1
SC1122 CIRCULAR 0.200 0 0 0 1
SC1123 CIRCULAR 0.200 0 0 0 1
SC1124 CIRCULAR 0.200 0 0 0 1
SC1125 CIRCULAR 0.200 0 0 0 1
SC1126 CIRCULAR 0.200 0 0 0 1
SC1127 CIRCULAR 0.200 0 0 0 1
SC1128 CIRCULAR 0.200 0 0 0 1
SC1129 CIRCULAR 0.200 0 0 0 1
SC1130 CIRCULAR 0.200 0 0 0 1
SC1131 CIRCULAR 0.200 0 0 0 1
SC1132 CIRCULAR 0.200 0 0 0 1
SC1133 CIRCULAR 0.200 0 0 0 1
SC1134 CIRCULAR 0.200 0 0 0 1
SC1135 CIRCULAR 0.200 0 0 0 1
SC1136 CIRCULAR 0.200 0 0 0 1
SC1137 CIRCULAR 0.200 0 0 0 1
SC1138 CIRCULAR 0.200 0 0 0 1
SC1139 CIRCULAR 0.200 0 0 0 1
SC1140 CIRCULAR 0.200 0 0 0 1
SC1141 CIRCULAR 0.200 0 0 0 1
SC1143 CIRCULAR 0.200 0 0 0 1
SC1144 CIRCULAR 0.200 0 0 0 1
SC1145 CIRCULAR 0.200 0 0 0 1
SC1146 CIRCULAR 0.200 0 0 0 1
SC1147 CIRCULAR 0.200 0 0 0 1
SC1148 CIRCULAR 0.200 0 0 0 1
SC1149 CIRCULAR 0.200 0 0 0 1
SC1150 CIRCULAR 0.200 0 0 0 1
SC1151 CIRCULAR 0.200 0 0 0 1
SC1152 CIRCULAR 0.200 0 0 0 1
SC1153 CIRCULAR 0.200 0 0 0 1
SC1154 CIRCULAR 0.200 0 0 0 1
SC1155 CIRCULAR 0.200 0 0 0 1
SC1156 CIRCULAR 0.200 0 0 0 1
SC1157 CIRCULAR 0.200 0 0 0 1
SC1158 CIRCULAR 0.200 0 0 0 1
SC1159 CIRCULAR 0.200 0 0 0 1
SC1160 CIRCULAR 0.200 0 0 0 1
SC1161 CIRCULAR 0.200 0 0 0 1
SC1162 CIRCULAR 0.200 0 0 0 1
SC1163 CIRCULAR 0.200 0 0 0 1
SC1164 CIRCULAR 0.200 0 0 0 1
SC1165 CIRCULAR 0.200 0 0 0 1
SC1166 CIRCULAR 0.200 0 0 0 1
SC1167 CIRCULAR 0.200 0 0 0 1
SC1168 CIRCULAR 0.200 0 0 0 1
SC1169 CIRCULAR 0.200 0 0 0 1
SC1170 CIRCULAR 0.200 0 0 0 1
SC1171 CIRCULAR 0.200 0 0 0 1
SC1172 CIRCULAR 0.200 0 0 0 1
SC1173 CIRCULAR 0.200 0 0 0 1
SC1174 CIRCULAR 0.200 0 0 0 1
SC1175 CIRCULAR 0.200 0 0 0 1
SC1176 CIRCULAR 0.200 0 0 0 1
SC1177 CIRCULAR 0.200 0 0 0 1
SC1178 CIRCULAR 0.200 0 0 0 1
SC1179 CIRCULAR 0.200 0 0 0 1
SC1180 CIRCULAR 0.200 0 0 0 1
SC1181 CIRCULAR 0.200 0 0 0 1
SC1182 CIRCULAR 0.200 0 0 0 1
SC1183 CIRCULAR 0.200 0 0 0 1
SC1184 CIRCULAR 0.200 0 0 0 1
SC1185 CIRCULAR 0.200 0 0 0 1
SC1186 CIRCULAR 0.200 0 0 0 1
SC1187 CIRCULAR 0.200 0 0 0 1
SC1188 CIRCULAR 0.200 0 0 0 1
SC1189 CIRCULAR 0.200 0 0 0 1
SC1190 CIRCULAR 0.200 0 0 0 1
SC1191 CIRCULAR 0.200 0 0 0 1
SC1192 CIRCULAR 0.200 0 0 0 1
SC1193 CIRCULAR 0.200 0 0 0 1
SC1194 CIRCULAR 0.200 0 0 0 1
SC1195 CIRCULAR 0.200 0 0 0 1
SC1196 CIRCULAR 0.200 0 0 0 1
SC1197 CIRCULAR 0.200 0 0 0 1
SC1198 CIRCULAR 0.200 0 0 0 1
SC1199 CIRCULAR 0.200 0 0 0 1
SC1200 CIRCULAR 0.200 0 0 0 1
SC1201 CIRCULAR 0.200 0 0 0 1
SC1202 CIRCULAR 0.200 0 0 0 1
SC1203 CIRCULAR 0.200 0 0 0 1
SC1204 CIRCULAR 0.200 0 0 0 1
SC1205 CIRCULAR 0.200 0 0 0 1
SC1206 CIRCULAR 0.200 0 0 0 1
SC1207 CIRCULAR 0.200 0 0 0 1
SC1209 CIRCULAR 0.200 0 0 0 1
SC1210 CIRCULAR 0.200 0 0 0 1
SC1211 CIRCULAR 0.200 0 0 0 1
SC1212 CIRCULAR 0.200 0 0 0 1
SC1213 CIRCULAR 0.200 0 0 0 1
SC1214 CIRCULAR 0.200 0 0 0 1
SC1215 CIRCULAR 0.200 0 0 0 1
SC1216 CIRCULAR 0.200 0 0 0 1
SC1217 CIRCULAR 0.200 0 0 0 1
SC1218 CIRCULAR 0.200 0 0 0 1
SC1219 CIRCULAR 0.200 0 0 0 1
SC1220 CIRCULAR 0.200 0 0 0 1
SC1221 CIRCULAR 0.200 0 0 0 1
SC1222 CIRCULAR 0.200 0 0 0 1
SC1223 CIRCULAR 0.200 0 0 0 1
SC1224 CIRCULAR 0.200 0 0 0 1
SC1225 CIRCULAR 0.200 0 0 0 1
SC1226 CIRCULAR 0.200 0 0 0 1
SC1227 CIRCULAR 0.200 0 0 0 1
SC1228 CIRCULAR 0.200 0 0 0 1
SC1229 CIRCULAR 0.200 0 0 0 1
SC1230 CIRCULAR 0.200 0 0 0 1
SC1231 CIRCULAR 0.200 0 0 0 1
SC1232 CIRCULAR 0.200 0 0 0 1
SC1233 CIRCULAR 0.200 0 0 0 1
SC1234 CIRCULAR 0.200 0 0 0 1
SC1235 CIRCULAR 0.200 0 0 0 1
SC1236 CIRCULAR 0.200 0 0 0 1
SC1237 CIRCULAR 0.200 0 0 0 1
SC1238 CIRCULAR 0.600 0 0 0 1

[CURVES]
;;Name Type X-Value Y-Value
PC001 PUMP4 0 0
PC001 0.15 0.00524263
PC001 2.0 0.00524263
PC002 PUMP4 0 0
PC002 0.15 0.00084658
PC002 2.0 0.00084658
PC003 PUMP4 0 0
PC003 0.15 0.12397201
PC003 2.0 0.12397201
PC004 PUMP4 0 0
PC004 0.15 0.00111091
PC004 2.0 0.00111091
PC005 PUMP4 0 0
PC005 0.15 0.00843057
PC005 2.0 0.00843057
PC006 PUMP4 0 0
PC006 0.15 0.12520237
PC006 2.0 0.12520237
PC007 PUMP4 0 0
PC007 0.15 0.03837216
PC007 2.0 0.03837216
PC008 PUMP4 0 0
PC008 0.15 0.04491387
PC008 2.0 0.04491387
PC009 PUMP4 0 0
PC009 0.15 0.00061999
PC009 2.0 0.00061999
PC010 PUMP4 0 0
PC010 0.15 0.00564278
PC010 2.0 0.00564278
PC011 PUMP4 0 0
PC011 0.15 0.00062021
PC011 2.0 0.00062021
PC012 PUMP4 0 0
PC012 0.15 0.00062021
PC012 2.0 0.00062021
PC013 PUMP4 0 0
PC013 0.15 0.00062021
PC013 2.0 0.00062021
PC014 PUMP4 0 0
PC014 0.15 0.00093022
PC014 2.0 0.00093022
PC015 PUMP4 0 0
PC015 0.15 0.00062021
PC015 2.0 0.00062021
PC016 PUMP4 0 0
PC016 0.15 0.00062021
PC016 2.0 0.00062021
PC017 PUMP4 0 0
PC017 0.15 0.12446454
PC017 2.0 0.12446454
PC018 PUMP4 0 0
PC018 0.15 0.00062021
PC018 2.0 0.00062021
PC019 PUMP4 0 0
PC019 0.15 0.02810358
PC019 2.0 0.02810358
PC020 PUMP4 0 0
PC020 0.15 0.00061999
PC020 2.0 0.00061999
PC021 PUMP4 0 0
PC021 0.15 0.00066536
PC021 2.0 0.00066536
PC022 PUMP4 0 0
PC022 0.15 0.02882687
PC022 2.0 0.02882687
PC023 PUMP4 0 0
PC023 0.15 0.00061999
PC023 2.0 0.00061999
PC024 PUMP4 0 0
PC024 0.15 0.00062021
PC024 2.0 0.00062021
PC025 PUMP4 0 0
PC025 0.15 0.00061412
PC025 2.0 0.00061412

[DWF]
;;Node Constituent Baseline Patterns
SJ0005 FLOW 0.00005249
SJ0007 FLOW 0.00020739
SJ0009 FLOW 0.00030916
SJ0011 FLOW 0.00021507
SJ0012 FLOW 0.00015106
SJ0014 FLOW 0.00013954
SJ0016 FLOW 0.00001792
SJ0017 FLOW 0.00003136
SJ0018 FLOW 0.00014850
SJ0020 FLOW 0.00019715
SJ0021 FLOW 0.00017538
SJ0022 FLOW 0.00007617
SJ0026 FLOW 0.00016066
SJ0028 FLOW 0.00033732
SJ0032 FLOW 0.00021955
SJ0036 FLOW 0.00028228
SJ0040 FLOW 0.00031364
SJ0042 FLOW 0.00021059
SJ0044 FLOW 0.00018626
SJ0048 FLOW 0.00021123
SJ0050 FLOW 0.00008065
SJ0054 FLOW 0.00025475
SJ0056 FLOW 0.00018050
SJ0057 FLOW 0.00015426
SJ0060 FLOW 0.00006337
SJ0065 FLOW 0.00018754
SJ0067 FLOW 0.00021059
SJ0071 FLOW 0.00007809
SJ0073 FLOW 0.00020163
SJ0075 FLOW 0.00028548
SJ0077 FLOW 0.00017986
SJ0079 FLOW 0.00012098
SJ0085 FLOW 0.00012802
SJ0087 FLOW 0.00031236
SJ0089 FLOW 0.00023427
SJ0091 FLOW 0.00020419
SJ0093 FLOW 0.00023299
SJ0097 FLOW 0.00050247
SJ0098 FLOW 0.00036293
SJ0104 FLOW 0.00007937
SJ0110 FLOW 0.00026243
SJ0111 FLOW 0.00026884
SJ0112 FLOW 0.00025987
SJ0113 FLOW 0.00032132
SJ0114 FLOW 0.00021379
SJ0116 FLOW 0.00005505
SJ0118 FLOW 0.00025539
SJ0123 FLOW 0.00025731
SJ0126 FLOW 0.00000896
SJ0127 FLOW 0.00003136
SJ0129 FLOW 0.00028036
SJ0130 FLOW 0.00018690
SJ0136 FLOW 0.00001344
SJ0140 FLOW 0.00008193
SJ0142 FLOW 0.00033732
SJ0144 FLOW 0.00010689
SJ0145 FLOW 0.00018626
SJ0146 FLOW 0.00000448
SJ0149 FLOW 0.00034949
SJ0151 FLOW 0.00001344
SJ0153 FLOW 0.00005825
SJ0157 FLOW 0.00013122
SJ0159 FLOW 0.00020611
SJ0161 FLOW 0.00004481
SJ0163 FLOW 0.00006337
SJ0165 FLOW 0.00006273
SJ0167 FLOW 0.00007681
SJ0171 FLOW 0.00032580
SJ0173 FLOW 0.00005377
SJ0176 FLOW 0.00008897
SJ0177 FLOW 0.00011906
SJ0183 FLOW 0.00008769
SJ0187 FLOW 0.00010689
SJ0189 FLOW 0.00015170
SJ0191 FLOW 0.00017410
SJ0192 FLOW 0.00023491
SJ0193 FLOW 0.00026500
SJ0194 FLOW 0.00007233
SJ0195 FLOW 0.00020611
SJ0197 FLOW 0.00035141
SJ0198 FLOW 0.00042118
SJ0199 FLOW 0.00014914
SJ0207 FLOW 0.00017474
SJ0209 FLOW 0.00032900
SJ0210 FLOW 0.00002240
SJ0212 FLOW 0.00016002
SJ0214 FLOW 0.00019075
SJ0218 FLOW 0.00021443
SJ0219 FLOW 0.00023107
SJ0220 FLOW 0.00012162
SJ0221 FLOW 0.00020163
SJ0226 FLOW 0.00011842
SJ0227 FLOW 0.00025475
SJ0228 FLOW 0.00002240
SJ0230 FLOW 0.00020163
SJ0232 FLOW 0.00023875
SJ0234 FLOW 0.00022915
SJ0235 FLOW 0.00024643
SJ0237 FLOW 0.00023683
SJ0243 FLOW 0.00026307
SJ0244 FLOW 0.00028676
SJ0245 FLOW 0.00030532
SJ0247 FLOW 0.00019267
SJ0249 FLOW 0.00020163
SJ0253 FLOW 0.00030020
SJ0255 FLOW 0.00029764
SJ0256 FLOW 0.00015490
SJ0257 FLOW 0.00008513
SJ0258 FLOW 0.00003264
SJ0261 FLOW 0.00001408
SJ0263 FLOW 0.00022659
SJ0265 FLOW 0.00021763
SJ0266 FLOW 0.00000448
SJ0268 FLOW 0.00011201
SJ0270 FLOW 0.00020099
SJ0272 FLOW 0.00026307
SJ0273 FLOW 0.00025603
SJ0276 FLOW 0.00035525
SJ0277 FLOW 0.00011458
SJ0278 FLOW 0.00005377
SJ0279 FLOW 0.00003584
SJ0283 FLOW 0.00021507
SJ0285 FLOW 0.00015234
SJ0289 FLOW 0.00018626
SJ0290 FLOW 0.00031300
SJ0295 FLOW 0.00018818
SJ0296 FLOW 0.00030020
SJ0297 FLOW 0.00023043
SJ0299 FLOW 0.00013570
SJ0303 FLOW 0.00018050
SJ0305 FLOW 0.00030660
SJ0307 FLOW 0.00009281
SJ0308 FLOW 0.00001024
SJ0316 FLOW 0.00014722
SJ0320 FLOW 0.00018242
SJ0323 FLOW 0.00006913
SJ0325 FLOW 0.00009665
SJ0329 FLOW 0.00008065
SJ0330 FLOW 0.00018306
SJ0332 FLOW 0.00019395
SJ0333 FLOW 0.00005377
SJ0337 FLOW 0.00004033
SJ0338 FLOW 0.00026243
SJ0339 FLOW 0.00023107
SJ0346 FLOW 0.00021891
SJ0348 FLOW 0.00012930
SJ0349 FLOW 0.00011650
SJ0350 FLOW 0.00004481
SJ0355 FLOW 0.00003136
SJ0356 FLOW 0.00021507
SJ0362 FLOW 0.00005377
SJ0363 FLOW 0.00010497
SJ0364 FLOW 0.00042310
SJ0366 FLOW 0.00029380
SJ0368 FLOW 0.00017026
SJ0371 FLOW 0.00039941
SJ0372 FLOW 0.00014338
SJ0377 FLOW 0.00023811
SJ0379 FLOW 0.00023491
SJ0380 FLOW 0.00020355
SJ0381 FLOW 0.00016642
SJ0384 FLOW 0.00033220
SJ0386 FLOW 0.00019843
SJ0388 FLOW 0.00011714
SJ0390 FLOW 0.00023811
SJ0392 FLOW 0.00022403
SJ0406 FLOW 0.00026371
SJ0409 FLOW 0.00007041
SJ0411 FLOW 0.00004801
SJ0412 FLOW 0.00021635
SJ0414 FLOW 0.00017986
SJ0417 FLOW 0.00018882
SJ0419 FLOW 0.00027524
SJ0423 FLOW 0.00013122
SJ0425 FLOW 0.00024067
SJ0427 FLOW 0.00008769
SJ0429 FLOW 0.00010305
SJ0433 FLOW 0.00019331
SJ0436 FLOW 0.00019139
SJ0437 FLOW 0.00013314
SJ0442 FLOW 0.00016834
SJ0444 FLOW 0.00030468
SJ0445 FLOW 0.00015362
SJ0446 FLOW 0.00002560
SJ0449 FLOW 0.00024835
SJ0452 FLOW 0.00021443
SJ0454 FLOW 0.00008769
SJ0456 FLOW 0.00010817
SJ0458 FLOW 0.00020995
SJ0460 FLOW 0.00029508
SJ0462 FLOW 0.00009985
SJ0465 FLOW 0.00020611
SJ0468 FLOW 0.00021955
SJ0471 FLOW 0.00016130
SJ0472 FLOW 0.00012738
SJ0473 FLOW 0.00009025
SJ0475 FLOW 0.00022979
SJ0479 FLOW 0.00026243
SJ0480 FLOW 0.00006145
SJ0481 FLOW 0.00025923
SJ0483 FLOW 0.00008193
SJ0485 FLOW 0.00008449
SJ0488 FLOW 0.00034117
SJ0492 FLOW 0.00004929
SJ0494 FLOW 0.00004481
SJ0495 FLOW 0.00020931
SJ0496 FLOW 0.00012098
SJ0497 FLOW 0.00011009
SJ0498 FLOW 0.00009921
SJ0499 FLOW 0.00022595
SJ0500 FLOW 0.00016002
SJ0503 FLOW 0.00004161
SJ0505 FLOW 0.00004545
SJ0508 FLOW 0.00011009
SJ0509 FLOW 0.00009857
SJ0510 FLOW 0.00002688
SJ0511 FLOW 0.00020867
SJ0514 FLOW 0.00024195
SJ0516 FLOW 0.00030916
SJ0518 FLOW 0.00004929
SJ0520 FLOW 0.00015170
SJ0521 FLOW 0.00018050
SJ0522 FLOW 0.00017794
SJ0524 FLOW 0.00027780
SJ0525 FLOW 0.00016962
SJ0527 FLOW 0.00013186
SJ0529 FLOW 0.00001792
SJ0530 FLOW 0.00000448
SJ0531 FLOW 0.00030852
SJ0532 FLOW 0.00013314
SJ0535 FLOW 0.00024963
SJ0536 FLOW 0.00029764
SJ0538 FLOW 0.00013698
SJ0539 FLOW 0.00012866
SJ0541 FLOW 0.00007681
SJ0544 FLOW 0.00015554
SJ0548 FLOW 0.00013378
SJ0550 FLOW 0.00015874
SJ0551 FLOW 0.00011906
SJ0552 FLOW 0.00004481
SJ0553 FLOW 0.00002240
SJ0554 FLOW 0.00017282
SJ0556 FLOW 0.00026179
SJ0558 FLOW 0.00014082
SJ0559 FLOW 0.00000896
SJ0560 FLOW 0.00002240
SJ0561 FLOW 0.00010625
SJ0565 FLOW 0.00030916
SJ0568 FLOW 0.00008065
SJ0569 FLOW 0.00002688
SJ0570 FLOW 0.00001344
SJ0571 FLOW 0.00024579
SJ0572 FLOW 0.00021379
SJ0573 FLOW 0.00020483
SJ0575 FLOW 0.00005121
SJ0576 FLOW 0.00006593
SJ0578 FLOW 0.00014146
SJ0581 FLOW 0.00004929
SJ0583 FLOW 0.00024579
SJ0586 FLOW 0.00010369
SJ0587 FLOW 0.00004033
SJ0588 FLOW 0.00053767
SJ0589 FLOW 0.00030596
SJ0591 FLOW 0.00020675
SJ0593 FLOW 0.00026756
SJ0594 FLOW 0.00016962
SJ0596 FLOW 0.00016642
SJ0598 FLOW 0.00020739
SJ0600 FLOW 0.00017346
SJ0603 FLOW 0.00019139
SJ0604 FLOW 0.00022851
SJ0606 FLOW 0.00028484
SJ0607 FLOW 0.00024515
SJ0620 FLOW 0.00016322
SJ0621 FLOW 0.00022851
SJ0623 FLOW 0.00000448
SJ0625 FLOW 0.00021443
SJ0627 FLOW 0.00021827
SJ0629 FLOW 0.00012482
SJ0630 FLOW 0.00013122
SJ0632 FLOW 0.00010561
SJ0634 FLOW 0.00011650
SJ0635 FLOW 0.00011522
SJ0637 FLOW 0.00012546
SJ0638 FLOW 0.00018882
SJ0639 FLOW 0.00011009
SJ0641 FLOW 0.00021699
SJ0642 FLOW 0.00015106
SJ0644 FLOW 0.00011970
SJ0645 FLOW 0.00005889
SJ0647 FLOW 0.00011009
SJ0648 FLOW 0.00031684
SJ0650 FLOW 0.00024835
SJ0652 FLOW 0.00025539
SJ0653 FLOW 0.00012546
SJ0658 FLOW 0.00019267
SJ0659 FLOW 0.00017474
SJ0660 FLOW 0.00029956
SJ0661 FLOW 0.00031364
SJ0663 FLOW 0.00021763
SJ0664 FLOW 0.00020867
SJ0665 FLOW 0.00019267
SJ0666 FLOW 0.00020803
SJ0667 FLOW 0.00020483
SJ0670 FLOW 0.00026435
SJ0673 FLOW 0.00012994
SJ0675 FLOW 0.00004417
SJ0676 FLOW 0.00007105
SJ0678 FLOW 0.00020099
SJ0680 FLOW 0.00016962
SJ0681 FLOW 0.00012674
SJ0683 FLOW 0.00024003
SJ0684 FLOW 0.00009665
SJ0685 FLOW 0.00003392
SJ0687 FLOW 0.00001344
SJ0688 FLOW 0.00011714
SJ0689 FLOW 0.00014466
SJ0693 FLOW 0.00016962
SJ0694 FLOW 0.00033860
SJ0696 FLOW 0.00044806
SJ0697 FLOW 0.00020547
SJ0698 FLOW 0.00019267
SJ0702 FLOW 0.00015042
SJ0704 FLOW 0.00010433
SJ0705 FLOW 0.00018050
SJ0707 FLOW 0.00033348
SJ0708 FLOW 0.00008129
SJ0709 FLOW 0.00026179
SJ0710 FLOW 0.00031172
SJ0711 FLOW 0.00025987
SJ0712 FLOW 0.00036037
SJ0714 FLOW 0.00020547
SJ0715 FLOW 0.00025539
SJ0718 FLOW 0.00008065
SJ0720 FLOW 0.00015746
SJ0721 FLOW 0.00017154
SJ0723 FLOW 0.00009345
SJ0725 FLOW 0.00007041
SJ0726 FLOW 0.00033668
SJ0730 FLOW 0.00027844
SJ0731 FLOW 0.00018818
SJ0732 FLOW 0.00005697
SJ0734 FLOW 0.00027332
SJ0735 FLOW 0.00012930
SJ0737 FLOW 0.00001792
SJ0740 FLOW 0.00020419
SJ0741 FLOW 0.00006785
SJ0742 FLOW 0.00009473
SJ0744 FLOW 0.00020803
SJ0747 FLOW 0.00003584
SJ0748 FLOW 0.00009857
SJ0750 FLOW 0.00031300
SJ0751 FLOW 0.00030084
SJ0752 FLOW 0.00023747
SJ0754 FLOW 0.00024003
SJ0756 FLOW 0.00021571
SJ0758 FLOW 0.00002240
SJ0761 FLOW 0.00027716
SJ0762 FLOW 0.00007937
SJ0763 FLOW 0.00017666
SJ0764 FLOW 0.00014850
SJ0765 FLOW 0.00019715
SJ0767 FLOW 0.00000448
SJ0768 FLOW 0.00003648
SJ0770 FLOW 0.00011842
SJ0771 FLOW 0.00027332
SJ0774 FLOW 0.00020355
SJ0776 FLOW 0.00023747
SJ0778 FLOW 0.00024707
SJ0780 FLOW 0.00014850
SJ0781 FLOW 0.00005953
SJ0782 FLOW 0.00009025
SJ0783 FLOW 0.00007873
SJ0784 FLOW 0.00007553
SJ0785 FLOW 0.00021635
SJ0786 FLOW 0.00027204
SJ0787 FLOW 0.00020931
SJ0788 FLOW 0.00009409
SJ0789 FLOW 0.00023299
SJ0790 FLOW 0.00022339
SJ0791 FLOW 0.00038533
SJ0792 FLOW 0.00010753
SJ0793 FLOW 0.00003584
SJ0794 FLOW 0.00003584
SJ0795 FLOW 0.00039813
SJ0796 FLOW 0.00014978
SJ0798 FLOW 0.00007105
SJ0800 FLOW 0.00029828
SJ0801 FLOW 0.00025027
SJ0802 FLOW 0.00013570
SJ0803 FLOW 0.00035973
SJ0804 FLOW 0.00016450
SJ0805 FLOW 0.00017474
SJ0806 FLOW 0.00012546
SJ0808 FLOW 0.00000128
SJ0809 FLOW 0.00011201
SJ0812 FLOW 0.00022851
SJ0813 FLOW 0.00016578
SJ0814 FLOW 0.00016130
SJ0816 FLOW 0.00014786
SJ0821 FLOW 0.00035269
SJ0825 FLOW 0.00012482
SJ0827 FLOW 0.00010497
SJ0829 FLOW 0.00025987
SJ0830 FLOW 0.00026115
SJ0831 FLOW 0.00018370
SJ0833 FLOW 0.00028868
SJ0834 FLOW 0.00024643
SJ0836 FLOW 0.00007681
SJ0837 FLOW 0.00021507
SJ0839 FLOW 0.00021955
SJ0841 FLOW 0.00054087
SJ0843 FLOW 0.00025731
SJ0844 FLOW 0.00000896
SJ0846 FLOW 0.00029508
SJ0850 FLOW 0.00013954
SJ0852 FLOW 0.00000896
SJ0853 FLOW 0.00008065
SJ0854 FLOW 0.00000448
SJ0858 FLOW 0.00014658
SJ0861 FLOW 0.00024195
SJ0862 FLOW 0.00036869
SJ0864 FLOW 0.00015746
SJ0865 FLOW 0.00019779
SJ0866 FLOW 0.00017922
SJ0869 FLOW 0.00028484
SJ0870 FLOW 0.00007297
SJ0874 FLOW 0.00015298
SJ0876 FLOW 0.00031684
SJ0879 FLOW 0.00029188
SJ0880 FLOW 0.00023107
SJ0882 FLOW 0.00001792
SJ0883 FLOW 0.00016642
SJ0884 FLOW 0.00014338
SJ0885 FLOW 0.00018626
SJ0886 FLOW 0.00023299
SJ0887 FLOW 0.00000448
SJ0888 FLOW 0.00006849
SJ0889 FLOW 0.00005377
SJ0890 FLOW 0.00028228
SJ0891 FLOW 0.00019843
SJ0893 FLOW 0.00015554
SJ0895 FLOW 0.00001472
SJ0897 FLOW 0.00015554
SJ0898 FLOW 0.00007873
SJ0899 FLOW 0.00039941
SJ0900 FLOW 0.00015234
SJ0901 FLOW 0.00038917
SJ0902 FLOW 0.00021891
SJ0903 FLOW 0.00004481
SJ0904 FLOW 0.00024515
SJ0905 FLOW 0.00019843
SJ0907 FLOW 0.00009217
SJ0908 FLOW 0.00021955
SJ0909 FLOW 0.00022659
SJ0910 FLOW 0.00027460
SJ0911 FLOW 0.00029444
SJ0912 FLOW 0.00022595
SJ0913 FLOW 0.00009857
SJ0915 FLOW 0.00018947
SJ0919 FLOW 0.00025987
SJ0920 FLOW 0.00023747
SJ0921 FLOW 0.00013378
SJ0923 FLOW 0.00020227
SJ0925 FLOW 0.00012546
SJ0926 FLOW 0.00012098
SJ0927 FLOW 0.00026948
SJ0929 FLOW 0.00014146
SJ0930 FLOW 0.00031236
SJ0931 FLOW 0.00016386
SJ0932 FLOW 0.00024707
SJ0933 FLOW 0.00023939
SJ0934 FLOW 0.00003136
SJ0936 FLOW 0.00028228
SJ0938 FLOW 0.00051975
SJ0939 FLOW 0.00013890
SJ0940 FLOW 0.00023747
SJ0941 FLOW 0.00015682
SJ0942 FLOW 0.00025155
SJ0943 FLOW 0.00004801
SJ0944 FLOW 0.00005377
SJ0945 FLOW 0.00012290
SJ0946 FLOW 0.00019523
SJ0947 FLOW 0.00017346
SJ0948 FLOW 0.00035077
SJ0950 FLOW 0.00013890
SJ0951 FLOW 0.00019075
SJ0954 FLOW 0.00019203
SJ0955 FLOW 0.00021955
SJ0956 FLOW 0.00003584
SJ0957 FLOW 0.00027780
SJ0958 FLOW 0.00025091
SJ0959 FLOW 0.00029572
SJ0962 FLOW 0.00012418
SJ0963 FLOW 0.00019779
SJ0964 FLOW 0.00012418
SJ0965 FLOW 0.00026820
SJ0966 FLOW 0.00014914
SJ0967 FLOW 0.00009473
SJ0968 FLOW 0.00016962
SJ0969 FLOW 0.00024387
SJ0972 FLOW 0.00020355
SJ0974 FLOW 0.00072714
SJ0975 FLOW 0.00018306
SJ0977 FLOW 0.00027908
SJ0978 FLOW 0.00015106
SJ0979 FLOW 0.00019331
SJ0982 FLOW 0.00012354
SJ0984 FLOW 0.00035973
SJ0987 FLOW 0.00008769
SJ0988 FLOW 0.00018947
SJ0989 FLOW 0.00019587
SJ0990 FLOW 0.00023363
SJ0992 FLOW 0.00027652
SJ0993 FLOW 0.00024195
SJ0994 FLOW 0.00026435
SJ0996 FLOW 0.00020995
SJ0997 FLOW 0.00009857
SJ0998 FLOW 0.00003841
SJ0999 FLOW 0.00016898
SJ1000 FLOW 0.00021059
SJ1001 FLOW 0.00026884
SJ1003 FLOW 0.00013442
SJ1004 FLOW 0.00005569
SJ1006 FLOW 0.00020419
SJ1007 FLOW 0.00009537
SJ1008 FLOW 0.00007745
SJ1009 FLOW 0.00013506
SJ1010 FLOW 0.00018690
SJ1011 FLOW 0.00024515
SJ1012 FLOW 0.00003776
SJ1013 FLOW 0.00029124
SJ1016 FLOW 0.00000896
SJ1017 FLOW 0.00013314
SJ1018 FLOW 0.00009153
SJ1019 FLOW 0.00027268
SJ1020 FLOW 0.00010881
SJ1021 FLOW 0.00023235
SJ1022 FLOW 0.00009281
SJ1023 FLOW 0.00012546
SJ1024 FLOW 0.00014018
SJ1025 FLOW 0.00017026
SJ1026 FLOW 0.00005505
SJ1027 FLOW 0.00001920
SJ1029 FLOW 0.00030020
SJ1030 FLOW 0.00015874
SJ1031 FLOW 0.00055623
SJ1032 FLOW 0.00008961
SJ1033 FLOW 0.00005825
SJ1034 FLOW 0.00005377
SJ1035 FLOW 0.00016130
SJ1036 FLOW 0.00005057
SJ1037 FLOW 0.00011714
SJ1038 FLOW 0.00013570
SJ1040 FLOW 0.00003136
SJ1041 FLOW 0.00004481
SJ1042 FLOW 0.00025731
SJ1043 FLOW 0.00015106
SJ1044 FLOW 0.00003136
SJ1045 FLOW 0.00001408
SJ1046 FLOW 0.00013314
SJ1047 FLOW 0.00050759
SJ1048 FLOW 0.00018370
SJ1050 FLOW 0.00023491
SJ1051 FLOW 0.00016514
SJ1053 FLOW 0.00015746
SJ1056 FLOW 0.00027780
SJ1057 FLOW 0.00009985
SJ1058 FLOW 0.00017858
SJ1059 FLOW 0.00006081
SJ1060 FLOW 0.00014146
SJ1061 FLOW 0.00017282
SJ1062 FLOW 0.00024515
SJ1063 FLOW 0.00006273
SJ1064 FLOW 0.00026884
SJ1065 FLOW 0.00010753
SJ1066 FLOW 0.00025091
SJ1067 FLOW 0.00020867
SJ1068 FLOW 0.00013826
SJ1069 FLOW 0.00020483
SJ1070 FLOW 0.00028292
SJ1071 FLOW 0.00000896
SJ1072 FLOW 0.00027460
SJ1073 FLOW 0.00041670
SJ1075 FLOW 0.00021123
SJ1076 FLOW 0.00020163
SJ1077 FLOW 0.00018434
SJ1078 FLOW 0.00011970
SJ1079 FLOW 0.00022595
SJ1080 FLOW 0.00017538
SJ1081 FLOW 0.00017922
SJ1082 FLOW 0.00020355
SJ1083 FLOW 0.00013570
SJ1084 FLOW 0.00009921
SJ1085 FLOW 0.00031940
SJ1086 FLOW 0.00021443
SJ1088 FLOW 0.00014594
SJ1089 FLOW 0.00038405
SJ1090 FLOW 0.00005825
SJ1091 FLOW 0.00004033
SJ1092 FLOW 0.00014018
SJ1093 FLOW 0.00018050
SJ1094 FLOW 0.00024003
SJ1095 FLOW 0.00007169
SJ1096 FLOW 0.00013954
SJ1097 FLOW 0.00014402
SJ1098 FLOW 0.00013122
SJ1099 FLOW 0.00001792
SJ1100 FLOW 0.00029764
SJ1101 FLOW 0.00014146
SJ1102 FLOW 0.00005889
SJ1103 FLOW 0.00031364
SJ1104 FLOW 0.00024195
SJ1107 FLOW 0.00000896
SJ1108 FLOW 0.00025155
SJ1109 FLOW 0.00012162
SJ1110 FLOW 0.00018626
SJ1111 FLOW 0.00015042
SJ1112 FLOW 0.00022019
SJ1113 FLOW 0.00023043
SJ1114 FLOW 0.00007169
SJ1115 FLOW 0.00005825
SJ1116 FLOW 0.00004353
SJ1117 FLOW 0.00005057
SJ1118 FLOW 0.00013186
SJ1119 FLOW 0.00034245
SJ1120 FLOW 0.00023555
SJ1121 FLOW 0.00015682
SJ1122 FLOW 0.00017666
SJ1123 FLOW 0.00042950
SJ1124 FLOW 0.00010625
SJ1125 FLOW 0.00014786
SJ1126 FLOW 0.00004609
SJ1127 FLOW 0.00017410
SJ1129 FLOW 0.00017474
SJ1130 FLOW 0.00016578
SJ1131 FLOW 0.00017986
SJ1132 FLOW 0.00002496
SJ1133 FLOW 0.00015234
SJ1134 FLOW 0.00002240
SJ1135 FLOW 0.00022211
SJ1136 FLOW 0.00013122
SJ1137 FLOW 0.00018754
SJ1138 FLOW 0.00024323
SJ1139 FLOW 0.00007297
SJ1140 FLOW 0.00004481
SJ1141 FLOW 0.00009409
SJ1142 FLOW 0.00017922
SJ1143 FLOW 0.00006913
SJ1144 FLOW 0.00028420
SJ1145 FLOW 0.00008129
SJ1146 FLOW 0.00011265
SJ1147 FLOW 0.00009601
SJ1148 FLOW 0.00019139
SJ1149 FLOW 0.00012866
SJ1150 FLOW 0.00042694
SJ1151 FLOW 0.00028548
SJ1152 FLOW 0.00018818
SJ1153 FLOW 0.00021699
SJ1154 FLOW 0.00001792
SJ1156 FLOW 0.00040005
SJ1157 FLOW 0.00013506
SJ1158 FLOW 0.00012674
SJ1159 FLOW 0.00019139
SJ1160 FLOW 0.00030916
SJ1161 FLOW 0.00022211
SJ1162 FLOW 0.00018370
SJ1163 FLOW 0.00011201
SJ1164 FLOW 0.00020355
SJ1165 FLOW 0.00038277
SJ1166 FLOW 0.00017602
SJ1167 FLOW 0.00005057
SJ1168 FLOW 0.00019971
SJ1169 FLOW 0.00011394
SJ1170 FLOW 0.00018626
SJ1171 FLOW 0.00004673
SJ1172 FLOW 0.00025091
SJ1173 FLOW 0.00027140
SJ1174 FLOW 0.00013122
SJ1175 FLOW 0.00018242
SJ1176 FLOW 0.00013954
SJ1177 FLOW 0.00027844
SJ1178 FLOW 0.00019651
SJ1179 FLOW 0.00006273
SJ1180 FLOW 0.00019075
SJ1182 FLOW 0.00011778
SJ1183 FLOW 0.00028676
SJ1184 FLOW 0.00020547
SJ1185 FLOW 0.00012866
SJ1186 FLOW 0.00024195
SJ1187 FLOW 0.00016578
SJ1188 FLOW 0.00025539
SJ1189 FLOW 0.00030916
SJ1190 FLOW 0.00039109
SJ1191 FLOW 0.00015042
SJ1192 FLOW 0.00027332
SJ1193 FLOW 0.00012546
SJ1194 FLOW 0.00008961
SJ1195 FLOW 0.00019395
SJ1196 FLOW 0.00000448
SJ1197 FLOW 0.00024707
SJ1198 FLOW 0.00035205
SJ1199 FLOW 0.00025731
SJ1200 FLOW 0.00016194
SJ1201 FLOW 0.00001344
SJ1202 FLOW 0.00009857
SJ1203 FLOW 0.00002688
SJ1204 FLOW 0.00005825
SJ1205 FLOW 0.00006465
SJ1206 FLOW 0.00024451
SJ1207 FLOW 0.00017026
SJ1208 FLOW 0.00004929
SJ1209 FLOW 0.00006849
SJ1210 FLOW 0.00016258
SJ1211 FLOW 0.00023299
SJ1212 FLOW 0.00009921
SJ1213 FLOW 0.00023747
SJ1214 FLOW 0.00031940
SJ1215 FLOW 0.00017474
SJ1216 FLOW 0.00010689
SJ1217 FLOW 0.00020419
SJ1218 FLOW 0.00024195
SJ1219 FLOW 0.00004545
SJ1220 FLOW 0.00009409
SJ1221 FLOW 0.00019907
SJ1222 FLOW 0.00019779
SJ1223 FLOW 0.00003648
SJ1224 FLOW 0.00017922
SJ1225 FLOW 0.00017666
SJ1226 FLOW 0.00004033
SJ1227 FLOW 0.00022531
SJ1228 FLOW 0.00007745
SJ1229 FLOW 0.00016386
SJ1230 FLOW 0.00016322
SJ1231 FLOW 0.00027396
SJ1232 FLOW 0.00017794
SJ1233 FLOW 0.00005697
SJ1234 FLOW 0.00018434
SJ1235 FLOW 0.00028228
SJ1236 FLOW 0.00024067
SJ1237 FLOW 0.00031940
SJ1238 FLOW 0.00018626

[COORDINATES]
;;Node X-Coord Y-Coord
SJ0001 732618.14 5565058.68
SJ0002 732421.30 5564853.56
SJ0003 733061.89 5565886.99
SJ0004 733063.40 5565772.38
SJ0005 727310.36 5567303.12
SJ0006 727264.63 5567251.72
SJ0007 732342.84 5566484.42
SJ0008 732217.19 5566413.84
SJ0009 730563.06 5565841.22
SJ0010 730747.17 5565788.97
SJ0011 732174.47 5566348.49
SJ0012 729455.49 5564239.06
SJ0013 729480.56 5564258.76
SJ0014 736381.92 5566632.09
SJ0015 736352.78 5566578.80
SJ0016 735043.31 5564533.47
SJ0017 734877.87 5564524.65
SJ0018 729513.78 5566884.40
SJ0019 729397.96 5566362.31
SJ0020 732304.99 5567972.40
SJ0021 732255.14 5567741.48
SJ0022 733709.39 5565902.48
SJ0023 733454.18 5565704.36
SJ0024 734541.22 5562987.60
SJ0025 734588.50 5562864.36
SJ0026 731508.37 5567123.99
SJ0027 731644.27 5567006.76
SJ0028 734070.92 5563980.98
SJ0029 734005.04 5564019.18
SJ0030 728978.02 5566597.05
SJ0031 728957.00 5566533.11
SJ0032 730525.25 5564350.96
SJ0033 730423.66 5564332.80
SJ0034 729242.75 5564661.50
SJ0035 729314.07 5564523.87
SJ0036 730550.61 5566340.09
SJ0037 730656.33 5566367.27
SJ0038 729883.33 5565336.22
SJ0039 730035.70 5565114.45
SJ0040 734125.98 5564444.33
SJ0041 733923.72 5564321.88
SJ0042 731580.12 5565577.39
SJ0043 731669.79 5565492.82
SJ0044 732136.43 5566522.17
SJ0045 732074.70 5566245.90
SJ0046 731218.55 5567113.40
SJ0047 731200.45 5567041.36
SJ0048 729362.27 5567104.73
SJ0049 729293.79 5567104.50
SJ0050 731913.05 5564508.27
SJ0051 731872.84 5564573.78
SJ0052 732665.73 5564516.13
SJ0053 732635.70 5564575.20
SJ0054 733821.00 5567625.32
SJ0055 733819.53 5567560.87
SJ0056 732053.59 5567121.03
SJ0057 732079.62 5566967.40
SJ0058 734610.64 5562811.40
SJ0059 734615.06 5562806.18
SJ0060 731018.59 5565921.26
SJ0061 731108.60 5565922.61
SJ0062 732172.26 5564776.72
SJ0063 732098.04 5564761.88
SJ0064 734511.01 5563053.20
SJ0065 728864.93 5566866.43
SJ0066 728861.10 5566785.81
SJ0067 732416.11 5566227.37
SJ0068 732451.53 5566255.76
SJ0069 733105.44 5566142.70
SJ0070 733059.14 5565954.43
SJ0071 729589.30 5564265.42
SJ0072 729524.11 5564210.74
SJ0073 728651.11 5566973.36
SJ0074 728593.75 5566967.85
SJ0075 731487.46 5564718.89
SJ0076 731538.95 5564692.38
SJ0077 733741.57 5567438.51
SJ0078 733591.20 5567395.33
SJ0079 730995.86 5562302.63
SJ0080 731048.60 5562399.87
SJ0081 732774.23 5565151.53
SJ0082 732735.08 5565124.66
SJ0083 731736.82 5565639.83
SJ0084 731736.81 5565502.30
SJ0085 730648.54 5561333.93
SJ0086 730624.47 5561398.86
SJ0087 732249.71 5565244.58
SJ0088 732164.19 5565243.55
SJ0089 731257.49 5569002.27
SJ0090 731182.82 5569017.59
SJ0091 734151.70 5564347.06
SJ0092 734127.06 5564294.25
SJ0093 731424.20 5565658.81
SJ0094 731324.03 5565598.76
SJ0095 734487.70 5564584.08
SJ0096 734330.13 5564675.67
SJ0097 732025.17 5565015.39
SJ0098 732057.12 5564847.70
SJ0099 734925.57 5562783.04
SJ0100 734880.66 5562759.62
SJ0101 732571.44 5561618.36
SJ0102 732587.97 5561635.96
SJ0103 731621.62 5566971.03
SJ0104 732683.58 5564269.52
SJ0105 732572.37 5564222.98
SJ0106 731250.36 5567013.24
SJ0107 732212.75 5563855.05
SJ0108 732228.23 5564040.99
SJ0109 729293.85 5567101.20
SJ0110 731463.23 5568449.17
SJ0111 731507.64 5568277.74
SJ0112 730943.92 5568023.47
SJ0113 730917.34 5567919.70
SJ0114 726869.07 5567503.63
SJ0115 727082.59 5567449.67
SJ0116 730405.98 5561787.45
SJ0117 730848.72 5561835.26
SJ0118 731500.13 5567977.87
SJ0119 731550.83 5567984.85
SJ0120 733189.18 5565501.53
SJ0121 733088.40 5565452.96
SJ0122 734291.81 5564667.53
SJ0123 734226.26 5564699.16
SJ0124 736110.96 5566383.40
SJ0125 736061.40 5566361.45
SJ0126 734673.91 5560560.35
SJ0127 735028.66 5562095.06
SJ0128 732220.06 5565880.07
SJ0129 732168.42 5565664.09
SJ0130 735501.35 5562521.07
SJ0131 735494.88 5562530.51
SJ0132 733240.55 5565670.87
SJ0133 733145.73 5565569.75
SJ0134 735856.45 5565127.37
SJ0135 735819.46 5565124.52
SJ0136 732693.64 5568995.39
SJ0137 732615.70 5568663.85
SJ0138 731175.96 5564953.59
SJ0139 731106.82 5564859.57
SJ0140 730018.62 5566161.17
SJ0141 729866.56 5566055.55
SJ0142 733074.09 5566172.73
SJ0143 733109.67 5566179.64
SJ0144 732249.44 5568039.59
SJ0145 732190.36 5567890.49
SJ0146 727319.63 5565604.67
SJ0147 727830.21 5566198.89
SJ0148 729100.88 5564827.07
SJ0149 730602.34 5566609.07
SJ0150 730633.60 5566598.29
SJ0151 732825.12 5564680.02
SJ0152 730900.82 5562013.99
SJ0153 734522.00 5562245.67
SJ0154 734810.15 5562333.38
SJ0155 730055.82 5565313.33
SJ0156 729943.51 5565251.08
SJ0157 733656.81 5567960.76
SJ0158 733584.35 5568010.93
SJ0159 732851.34 5566002.38
SJ0160 732790.47 5565900.24
SJ0161 729606.83 5565893.69
SJ0162 729661.79 5566054.28
SJ0163 728521.11 5565790.08
SJ0164 728335.86 5565799.28
SJ0165 729922.34 5564508.49
SJ0166 730085.20 5564539.82
SJ0167 731089.49 5561992.77
SJ0168 730911.16 5562011.37
SJ0169 731421.74 5564341.21
SJ0170 731375.72 5564298.14
SJ0171 730917.89 5565403.00
SJ0172 730973.78 5565436.45
SJ0173 732890.55 5564106.43
SJ0174 732948.80 5564086.47
SJ0175 731835.61 5562916.50
SJ0176 731699.89 5563049.76
SJ0177 731321.60 5562067.15
SJ0178 730994.71 5562237.46
SJ0179 730694.88 5567613.96
SJ0180 730637.69 5567479.06
SJ0181 736037.83 5566321.33
SJ0182 735986.65 5566306.74
SJ0183 732239.80 5563605.87
SJ0184 732140.88 5563708.28
SJ0185 731905.17 5563427.73
SJ0186 731949.70 5563504.49
SJ0187 727983.66 5566029.07
SJ0188 727963.02 5566031.28
SJ0189 732192.09 5565960.34
SJ0190 731348.50 5564400.65
SJ0191 736144.89 5566429.28
SJ0192 728745.13 5567024.24
SJ0193 728795.81 5566951.81
SJ0194 735834.66 5565094.18
SJ0195 732329.94 5566364.33
SJ0196 732235.81 5566294.90
SJ0197 734188.84 5564137.25
SJ0198 733731.13 5564128.86
SJ0199 733267.40 5567150.35
SJ0200 733384.07 5567134.46
SJ0201 731079.95 5565581.62
SJ0202 731242.92 5565495.69
SJ0203 733031.67 5565309.57
SJ0204 732899.98 5565235.28
SJ0205 733298.94 5563640.29
SJ0206 733223.51 5563731.13
SJ0207 730899.13 5566574.12
SJ0208 730859.17 5566479.95
SJ0209 734333.17 5564616.03
SJ0210 729467.68 5564160.57
SJ0211 729582.26 5564144.37
SJ0212 733391.01 5566627.48
SJ0213 733358.94 5566669.34
SJ0214 733351.47 5563524.47
SJ0215 733331.51 5563555.08
SJ0216 732442.92 5564975.58
SJ0217 732439.91 5564972.43
SJ0218 732501.66 5566810.76
SJ0219 732330.80 5566631.90
SJ0220 731141.60 5568239.90
SJ0221 731210.73 5568101.92
SJ0222 731922.12 5567505.89
SJ0223 731928.60 5567474.11
SJ0224 731061.70 5566400.47
SJ0225 731082.71 5566384.77
SJ0226 733963.25 5567440.30
SJ0227 733924.45 5567347.25
SJ0228 733798.49 5566646.91
SJ0229 733701.40 5566563.39
SJ0230 731188.64 5566482.29
SJ0231 731306.60 5566455.77
SJ0232 729010.84 5566700.68
SJ0233 731973.89 5565991.42
SJ0234 732011.20 5565784.25
SJ0235 730848.96 5566140.96
SJ0236 730698.06 5566217.06
SJ0237 731777.64 5566186.37
SJ0238 731952.13 5566184.78
SJ0239 729518.03 5565289.14
SJ0240 729603.13 5565289.87
SJ0241 730850.13 5562980.74
SJ0242 730639.46 5562868.15
SJ0243 731215.21 5568641.12
SJ0244 731270.34 5568501.07
SJ0245 728271.05 5566807.27
SJ0246 728246.59 5566771.87
SJ0247 735812.14 5562756.70
SJ0248 735813.23 5562740.38
SJ0249 729755.47 5564631.57
SJ0250 729751.06 5564622.23
SJ0251 732868.05 5563853.09
SJ0252 732943.46 5564070.44
SJ0253 735467.71 5562056.70
SJ0254 735484.31 5562051.85
SJ0255 732155.10 5565263.83
SJ0256 735457.78 5562578.51
SJ0257 733103.56 5565659.59
SJ0258 731147.22 5561619.78
SJ0259 735688.40 5562297.68
SJ0260 735681.87 5562309.43
SJ0261 730045.09 5560897.93
SJ0262 730045.46 5560644.72
SJ0263 735513.31 5562690.57
SJ0264 735173.35 5562636.13
SJ0265 728536.45 5566644.71
SJ0266 732454.70 5567880.70
SJ0267 732423.50 5567758.11
SJ0268 734665.49 5564917.43
SJ0269 734621.01 5564803.94
SJ0270 730389.40 5565323.89
SJ0271 730459.29 5565304.71
SJ0272 728374.96 5566916.83
SJ0273 728440.07 5566795.13
SJ0274 732021.90 5565060.78
SJ0275 731888.16 5565072.47
SJ0276 728143.31 5566891.72
SJ0277 731205.59 5564382.19
SJ0278 734721.82 5566267.83
SJ0279 734560.86 5566210.84
SJ0280 728001.35 5566129.89
SJ0281 734398.79 5564331.97
SJ0282 734305.03 5564328.04
SJ0283 728451.23 5567249.33
SJ0284 728536.60 5567251.64
SJ0285 729684.11 5562607.20
SJ0286 729699.13 5562634.73
SJ0287 730280.79 5563089.93
SJ0288 730583.69 5562843.60
SJ0289 729150.94 5567097.02
SJ0290 729182.04 5566985.65
SJ0291 734648.65 5562715.80
SJ0292 734645.16 5562785.23
SJ0293 733560.59 5567946.73
SJ0294 731055.10 5564882.81
SJ0295 730187.18 5565995.63
SJ0296 730287.50 5565916.43
SJ0297 731402.69 5566580.20
SJ0298 731422.64 5566588.76
SJ0299 729114.55 5567183.60
SJ0300 729054.47 5567162.80
SJ0301 733178.51 5567181.38
SJ0302 732412.95 5566323.80
SJ0303 736097.11 5562947.28
SJ0304 735979.08 5562947.75
SJ0305 735413.25 5562217.43
SJ0306 735369.13 5562302.92
SJ0307 736344.92 5566559.03
SJ0308 733000.04 5569504.36
SJ0309 732961.58 5569444.64
SJ0310 733740.86 5567978.42
SJ0311 729689.60 5564025.47
SJ0312 729771.07 5563969.11
SJ0313 730965.63 5565326.39
SJ0314 729871.78 5564170.08
SJ0315 729926.98 5564097.14
SJ0316 730858.15 5567230.51
SJ0317 730996.51 5566999.57
SJ0318 730184.96 5566240.37
SJ0319 730046.74 5566203.55
SJ0320 729055.46 5567093.59
SJ0321 730156.95 5564169.46
SJ0322 730055.45 5563981.69
SJ0323 736489.97 5566664.76
SJ0324 736327.18 5566477.86
SJ0325 731852.03 5565982.59
SJ0326 731861.47 5565930.28
SJ0327 735733.71 5562216.38
SJ0328 734867.08 5565166.99
SJ0329 734750.39 5565063.89
SJ0330 733244.28 5566733.78
SJ0331 733206.92 5566675.18
SJ0332 735719.44 5562311.96
SJ0333 732809.53 5563107.58
SJ0334 733184.41 5563756.50
SJ0335 732070.99 5564760.92
SJ0336 731405.97 5566433.14
SJ0337 731344.98 5564130.74
SJ0338 729193.48 5566818.18
SJ0339 729110.32 5566667.02
SJ0340 732008.09 5569273.27
SJ0341 731979.85 5569150.16
SJ0342 731771.70 5563177.93
SJ0343 731944.42 5563474.90
SJ0344 730405.92 5564146.87
SJ0345 730305.56 5563946.29
SJ0346 735352.46 5562810.94
SJ0347 735363.54 5562785.28
SJ0348 730030.20 5566373.07
SJ0349 734180.57 5567351.14
SJ0350 734186.26 5567130.72
SJ0351 730408.23 5564331.17
SJ0352 730104.18 5563960.81
SJ0353 735644.72 5562354.40
SJ0354 733772.40 5567464.13
SJ0355 730140.48 5561512.16
SJ0356 728982.75 5567039.97
SJ0357 729054.55 5567039.95
SJ0358 728447.23 5565918.64
SJ0359 731131.74 5564712.28
SJ0360 731170.80 5564653.82
SJ0361 728220.30 5566012.58
SJ0362 728258.22 5565976.05
SJ0363 733308.86 5565882.16
SJ0364 730649.38 5564314.83
SJ0365 730600.48 5564280.48
SJ0366 727942.57 5567153.12
SJ0367 727981.43 5567005.68
SJ0368 732371.93 5565493.07
SJ0369 732361.77 5565506.66
SJ0370 729527.48 5562684.97
SJ0371 729598.48 5562777.84
SJ0372 731320.48 5566092.74
SJ0373 731417.79 5566059.78
SJ0374 729577.26 5564149.18
SJ0375 730957.03 5563270.49
SJ0376 731010.45 5563235.59
SJ0377 730867.00 5568070.96
SJ0378 730797.94 5567740.78
SJ0379 731048.01 5564702.34
SJ0380 733847.95 5568268.49
SJ0381 733771.41 5568182.80
SJ0382 732189.81 5562571.68
SJ0383 732206.10 5562596.51
SJ0384 735912.73 5562912.81
SJ0385 727028.09 5567636.20
SJ0386 729052.26 5566869.61
SJ0387 729015.67 5566720.58
SJ0388 731207.10 5565136.58
SJ0389 731243.58 5565055.29
SJ0390 732593.24 5566549.70
SJ0391 732480.93 5566413.56
SJ0392 729850.77 5563004.97
SJ0393 729938.31 5563068.44
SJ0394 730613.65 5567675.91
SJ0395 730420.26 5565086.93
SJ0396 730263.71 5564867.46
SJ0397 726957.39 5568019.07
SJ0398 733706.12 5564205.46
SJ0399 733537.05 5564106.88
SJ0400 729335.63 5566310.58
SJ0401 729427.68 5566182.33
SJ0402 733531.74 5566227.84
SJ0403 733442.26 5565852.33
SJ0404 727260.21 5567955.83
SJ0405 727153.96 5567927.19
SJ0406 730810.88 5565410.22
SJ0407 730899.60 5565330.75
SJ0408 731731.20 5563596.78
SJ0409 731694.10 5563927.86
SJ0410 731916.46 5563882.88
SJ0411 731796.69 5563468.06
SJ0412 729251.91 5567101.20
SJ0413 733609.70 5564231.46
SJ0414 733511.54 5564144.25
SJ0415 735635.68 5562666.45
SJ0416 735445.63 5562594.18
SJ0417 731441.33 5565316.95
SJ0418 731308.56 5565295.80
SJ0419 731642.39 5566875.81
SJ0420 732391.24 5564114.82
SJ0421 732431.93 5564139.51
SJ0422 731969.79 5567363.96
SJ0423 731995.05 5567301.28
SJ0424 728565.05 5566915.27
SJ0425 728584.49 5566774.07
SJ0426 729799.96 5562961.67
SJ0427 730170.46 5563241.59
SJ0428 730192.40 5563208.09
SJ0429 735659.99 5566471.72
SJ0430 735750.52 5566359.76
SJ0431 729358.74 5565630.58
SJ0432 729669.76 5562848.83
SJ0433 735491.41 5562323.09
SJ0434 731403.50 5567458.20
SJ0435 731402.60 5567503.93
SJ0436 730870.74 5567743.83
SJ0437 732034.03 5569267.52
SJ0438 733433.25 5565703.17
SJ0439 733439.02 5565593.97
SJ0440 731093.51 5565315.52
SJ0441 731175.80 5565308.54
SJ0442 731681.35 5566975.91
SJ0443 731779.22 5566895.23
SJ0444 730749.73 5566646.47
SJ0445 731644.35 5566336.42
SJ0446 729441.28 5565260.57
SJ0447 729482.39 5565239.99
SJ0448 733737.41 5564005.37
SJ0449 733620.91 5564070.84
SJ0450 732704.26 5565872.74
SJ0451 732704.78 5565849.12
SJ0452 734317.13 5564309.28
SJ0453 734278.96 5564326.80
SJ0454 734500.70 5563031.67
SJ0455 734507.70 5562989.30
SJ0456 736283.19 5566742.36
SJ0457 736218.11 5566470.26
SJ0458 735723.34 5562958.80
SJ0459 735510.82 5562853.40
SJ0460 729704.94 5562880.11
SJ0461 732656.77 5565828.89
SJ0462 730834.44 5561620.91
SJ0463 735299.76 5562317.09
SJ0464 735134.79 5562464.87
SJ0465 731827.81 5567582.64
SJ0466 731918.94 5567542.65
SJ0467 732030.26 5565683.65
SJ0468 731466.83 5565098.28
SJ0469 731546.98 5564865.33
SJ0470 728918.67 5566547.99
SJ0471 728655.88 5566601.15
SJ0472 728747.25 5566581.21
SJ0473 735712.45 5565200.84
SJ0474 735700.38 5565115.53
SJ0475 728500.03 5567049.71
SJ0476 728553.45 5567070.73
SJ0477 730067.27 5563416.01
SJ0478 730200.70 5563211.33
SJ0479 732513.83 5566652.94
SJ0480 731982.09 5563031.67
SJ0481 733818.06 5564218.85
SJ0482 733800.50 5564260.99
SJ0483 733141.05 5564034.15
SJ0484 732977.42 5564158.01
SJ0485 730413.97 5563533.39
SJ0486 730334.09 5563467.69
SJ0487 733870.03 5564300.63
SJ0488 731929.74 5565173.20
SJ0489 731849.27 5565037.93
SJ0490 732013.46 5567790.79
SJ0491 732323.93 5564085.39
SJ0492 734714.80 5564516.90
SJ0493 732426.78 5566297.59
SJ0494 729334.71 5564716.24
SJ0495 731933.41 5566117.87
SJ0496 731845.68 5567481.61
SJ0497 734664.46 5562840.16
SJ0498 733147.41 5565550.20
SJ0499 729972.57 5563838.27
SJ0500 731533.31 5567419.58
SJ0501 731658.49 5567448.54
SJ0502 732526.60 5564647.29
SJ0503 732042.22 5564073.86
SJ0504 732072.37 5563991.12
SJ0505 732179.97 5564419.34
SJ0506 732510.17 5564688.31
SJ0507 732149.92 5567405.64
SJ0508 732129.19 5567296.10
SJ0509 734497.00 5566185.67
SJ0510 734324.30 5566106.51
SJ0511 736215.71 5566586.68
SJ0512 731411.10 5568061.42
SJ0513 731642.19 5567466.03
SJ0514 730880.51 5566455.56
SJ0515 730885.53 5566466.37
SJ0516 730706.98 5568010.16
SJ0517 730657.07 5567910.30
SJ0518 732097.24 5569592.89
SJ0519 732009.69 5569279.86
SJ0520 731362.26 5564975.04
SJ0521 727350.38 5568014.51
SJ0522 727261.10 5567965.70
SJ0523 733857.39 5564446.24
SJ0524 733788.62 5564387.60
SJ0525 732242.67 5567648.66
SJ0526 732677.85 5564338.82
SJ0527 727792.10 5565913.35
SJ0528 727921.64 5565924.85
SJ0529 734118.19 5565988.83
SJ0530 733770.80 5565760.87
SJ0531 733735.96 5564016.02
SJ0532 731012.92 5567329.77
SJ0533 730923.22 5567310.53
SJ0534 731195.77 5567705.39
SJ0535 731195.87 5567682.77
SJ0536 734088.80 5564853.05
SJ0537 733987.13 5564797.45
SJ0538 727334.12 5568134.20
SJ0539 730905.60 5563660.62
SJ0540 730822.35 5563684.66
SJ0541 731240.53 5562722.55
SJ0542 731388.07 5562982.21
SJ0543 728584.38 5567422.08
SJ0544 728685.02 5567358.68
SJ0545 732469.06 5564168.75
SJ0546 732540.04 5564236.39
SJ0547 731992.87 5566321.16
SJ0548 733577.22 5568132.17
SJ0549 733503.86 5567386.75
SJ0550 733385.95 5567174.01
SJ0551 733695.06 5566572.88
SJ0552 730422.48 5570429.64
SJ0553 730377.94 5570406.72
SJ0554 728583.78 5567444.97
SJ0555 736250.44 5564868.05
SJ0556 729768.52 5562724.14
SJ0557 729740.57 5562910.14
SJ0558 730393.16 5564164.86
SJ0559 735014.52 5566342.90
SJ0560 734893.66 5566316.39
SJ0561 736301.60 5566892.48
SJ0562 730940.02 5565035.29
SJ0563 731058.73 5565006.39
SJ0564 731927.06 5564633.30
SJ0565 730790.53 5565993.47
SJ0566 730795.64 5565765.79
SJ0567 734181.79 5567116.73
SJ0568 732090.73 5565542.99
SJ0569 732576.73 5562084.59
SJ0570 732787.67 5562591.94
SJ0571 731127.15 5568584.32
SJ0572 731210.03 5568408.15
SJ0573 728846.36 5566645.08
SJ0574 728850.76 5566644.52
SJ0575 733887.29 5566073.54
SJ0576 733839.22 5566018.90
SJ0577 731250.22 5565736.64
SJ0578 730146.69 5564637.42
SJ0579 730057.68 5564620.89
SJ0580 735429.47 5562190.17
SJ0581 729419.79 5563189.63
SJ0582 729797.42 5563114.28
SJ0583 728906.66 5566728.19
SJ0584 731673.00 5564935.18
SJ0585 731660.43 5564797.61
SJ0586 730248.41 5565542.47
SJ0587 736691.04 5565950.31
SJ0588 730622.00 5566183.75
SJ0589 731837.44 5566774.96
SJ0590 731915.39 5566685.89
SJ0591 728332.93 5567171.93
SJ0592 728514.64 5567138.88
SJ0593 732115.44 5565821.61
SJ0594 731433.92 5564603.81
SJ0595 731287.99 5564480.96
SJ0596 731286.81 5564639.07
SJ0597 731219.08 5564580.63
SJ0598 731248.12 5565564.16
SJ0599 731272.65 5565541.01
SJ0600 733424.33 5566735.68
SJ0601 733431.06 5566726.34
SJ0602 733248.23 5565528.44
SJ0603 732706.32 5566650.30
SJ0604 731116.30 5566204.62
SJ0605 731162.89 5566146.95
SJ0606 735635.81 5562046.65
SJ0607 730004.63 5562984.82
SJ0608 730126.91 5562947.78
SJ0609 730015.75 5564001.33
SJ0610 728579.87 5566714.87
SJ0611 732177.30 5566281.91
SJ0612 728936.27 5561803.78
SJ0613 729045.69 5561988.50
SJ0614 729055.83 5567328.60
SJ0615 732307.77 5567250.88
SJ0616 732307.15 5566904.98
SJ0617 730849.66 5560960.48
SJ0618 729671.44 5566817.13
SJ0619 729661.96 5566630.88
SJ0620 733462.89 5567297.49
SJ0621 731258.69 5566293.52
SJ0622 731307.27 5566272.49
SJ0623 733348.34 5567815.15
SJ0624 733198.88 5567289.22
SJ0625 727101.71 5568006.43
SJ0626 727077.96 5567976.62
SJ0627 730358.80 5563910.68
SJ0628 730231.76 5563860.95
SJ0629 731630.85 5564581.86
SJ0630 731485.38 5564395.89
SJ0631 729193.37 5565078.18
SJ0632 730746.07 5565501.24
SJ0633 730713.57 5565503.92
SJ0634 736426.91 5566722.73
SJ0635 733098.65 5566485.93
SJ0636 733113.20 5566345.84
SJ0637 730292.42 5566259.80
SJ0638 731749.46 5567546.17
SJ0639 730830.46 5563499.39
SJ0640 730985.32 5563529.63
SJ0641 733782.18 5568385.96
SJ0642 733629.20 5568273.58
SJ0643 732462.98 5564014.76
SJ0644 730896.96 5565552.09
SJ0645 729843.23 5565035.86
SJ0646 733497.49 5564123.20
SJ0647 731338.09 5562981.19
SJ0648 731476.74 5566736.01
SJ0649 731351.23 5566727.96
SJ0650 731816.01 5566449.14
SJ0651 731858.56 5566315.04
SJ0652 730428.75 5565877.88
SJ0653 734363.41 5562790.54
SJ0654 729388.94 5566018.41
SJ0655 729795.03 5565651.72
SJ0656 733301.30 5563824.13
SJ0657 733283.27 5563799.60
SJ0658 730822.30 5566250.56
SJ0659 730943.33 5566200.59
SJ0660 731399.73 5565455.04
SJ0661 731299.51 5565371.69
SJ0662 732216.72 5566636.93
SJ0663 731511.04 5564952.10
SJ0664 731634.72 5565430.67
SJ0665 731635.46 5565345.66
SJ0666 735905.06 5562617.44
SJ0667 735655.12 5562588.70
SJ0668 731204.85 5562661.03
SJ0669 734176.87 5562691.11
SJ0670 733356.83 5567429.71
SJ0671 733461.20 5567534.22
SJ0672 733998.07 5564671.60
SJ0673 729476.19 5565169.13
SJ0674 732063.17 5565500.49
SJ0675 731039.62 5563584.34
SJ0676 728002.59 5565791.74
SJ0677 732033.90 5566759.86
SJ0678 732604.75 5563028.65
SJ0679 732511.20 5563566.50
SJ0680 733551.48 5563655.47
SJ0681 733362.44 5563656.43
SJ0682 731861.67 5564869.11
SJ0683 732210.42 5567483.28
SJ0684 731146.70 5563910.20
SJ0685 731138.53 5563706.60
SJ0686 728684.35 5567254.53
SJ0687 734675.29 5564686.39
SJ0688 732714.36 5565723.61
SJ0689 728866.93 5567112.06
SJ0690 728865.85 5566962.80
SJ0691 735655.91 5565110.75
SJ0692 729668.52 5566092.49
SJ0693 731261.36 5567018.05
SJ0694 731917.92 5566404.03
SJ0695 731923.95 5566318.14
SJ0696 731881.59 5565069.01
SJ0697 732342.35 5565629.79
SJ0698 731057.08 5566504.60
SJ0699 729513.20 5566266.25
SJ0700 733119.35 5566677.94
SJ0701 731911.28 5566681.17
SJ0702 729663.94 5564349.45
SJ0703 729789.75 5564194.30
SJ0704 732816.71 5565790.22
SJ0705 731925.52 5565472.64
SJ0706 731738.44 5565345.34
SJ0707 728226.91 5567128.68
SJ0708 731470.63 5562306.10
SJ0709 732028.65 5565119.17
SJ0710 731588.38 5566629.07
SJ0711 731694.78 5566480.99
SJ0712 732298.35 5564850.21
SJ0713 728855.79 5566712.39
SJ0714 732735.24 5566100.99
SJ0715 736055.06 5566353.78
SJ0716 734230.11 5564055.49
SJ0717 730754.79 5566281.92
SJ0718 734860.78 5562554.49
SJ0719 734726.63 5562526.62
SJ0720 729744.27 5566564.50
SJ0721 729848.48 5566538.82
SJ0722 731257.93 5567168.90
SJ0723 731795.59 5567093.60
SJ0724 731860.22 5567014.69
SJ0725 730807.94 5567411.87
SJ0726 733965.33 5564506.64
SJ0727 733950.66 5564530.70
SJ0728 728845.04 5566563.45
SJ0729 730358.72 5563156.38
SJ0730 731099.83 5565382.04
SJ0731 731003.64 5566420.91
SJ0732 732512.48 5564029.59
SJ0733 730861.82 5560959.34
SJ0734 731167.40 5567140.54
SJ0735 735296.06 5562409.78
SJ0736 735200.10 5562507.22
SJ0737 728257.87 5566151.58
SJ0738 735389.25 5562724.87
SJ0739 730058.71 5563423.94
SJ0740 730145.96 5563011.38
SJ0741 733002.63 5567415.93
SJ0742 732470.89 5563347.03
SJ0743 732593.53 5563622.88
SJ0744 733118.57 5560542.37
SJ0745 733039.37 5560535.02
SJ0746 733039.65 5565371.65
SJ0747 732935.61 5569451.73
SJ0748 730559.46 5563652.03
SJ0749 730694.02 5563516.53
SJ0750 729320.98 5567242.43
SJ0751 730974.03 5567081.65
SJ0752 733559.95 5566840.56
SJ0753 731149.92 5566944.46
SJ0754 731096.29 5567576.97
SJ0755 731195.14 5567570.27
SJ0756 731333.41 5568011.66
SJ0757 731320.36 5568037.80
SJ0758 732968.57 5561336.27
SJ0759 734955.95 5562662.07
SJ0760 731151.69 5563559.08
SJ0761 730726.36 5564141.08
SJ0762 730502.77 5564711.50
SJ0763 733326.51 5566081.65
SJ0764 733182.04 5565829.12
SJ0765 731777.55 5565475.01
SJ0766 732857.94 5565424.49
SJ0767 732455.07 5569999.26
SJ0768 732438.77 5563787.37
SJ0769 732493.60 5563799.05
SJ0770 729348.67 5566343.73
SJ0771 730391.03 5566631.50
SJ0772 729844.67 5563111.53
SJ0773 729925.02 5563085.53
SJ0774 729569.04 5564646.87
SJ0775 729645.40 5564560.50
SJ0776 732127.05 5562458.95
SJ0777 731264.89 5566196.48
SJ0778 731503.49 5566456.39
SJ0779 731348.15 5566559.67
SJ0780 732687.22 5566946.65
SJ0781 734287.71 5562122.97
SJ0782 734629.97 5562381.33
SJ0783 735330.43 5562705.45
SJ0784 736204.41 5566750.55
SJ0785 733526.10 5565708.52
SJ0786 729038.19 5566593.80
SJ0787 731051.81 5566974.60
SJ0788 733978.88 5563647.63
SJ0789 733846.43 5563844.97
SJ0790 731300.84 5565839.08
SJ0791 731130.37 5567751.55
SJ0792 735999.37 5563035.89
SJ0793 733574.78 5564492.94
SJ0794 728115.90 5564711.42
SJ0795 733464.14 5567548.26
SJ0796 731418.25 5566265.99
SJ0797 731382.30 5566327.80
SJ0798 729788.20 5565341.78
SJ0799 730005.06 5566397.01
SJ0800 728430.07 5567070.94
SJ0801 728509.86 5566911.95
SJ0802 732962.18 5565921.48
SJ0803 732048.57 5565229.71
SJ0804 731371.07 5567860.23
SJ0805 731394.09 5567746.23
SJ0806 729708.35 5565142.08
SJ0807 729861.30 5565227.90
SJ0808 730924.44 5560955.39
SJ0809 730212.50 5562115.32
SJ0810 730297.78 5562249.26
SJ0811 731003.48 5567205.39
SJ0812 731512.25 5565870.96
SJ0813 733664.66 5563810.40
SJ0814 733484.48 5563807.88
SJ0815 730158.01 5563195.23
SJ0816 730901.47 5567347.05
SJ0817 732572.25 5565742.68
SJ0818 731238.45 5566693.34
SJ0819 731330.90 5566550.41
SJ0820 730431.09 5563215.39
SJ0821 733904.44 5564084.08
SJ0822 733898.04 5564041.45
SJ0823 734768.89 5562888.71
SJ0824 730781.96 5563633.44
SJ0825 733474.44 5563485.78
SJ0826 733467.96 5563514.79
SJ0827 732703.50 5565267.53
SJ0828 732644.14 5565210.93
SJ0829 731264.43 5565916.30
SJ0830 735549.39 5562931.75
SJ0831 731467.85 5567558.95
SJ0832 731502.61 5567498.16
SJ0833 731312.65 5564453.79
SJ0834 730419.78 5566248.77
SJ0835 731558.17 5564576.59
SJ0836 735858.23 5565221.92
SJ0837 732230.57 5562580.99
SJ0838 733867.55 5563865.85
SJ0839 733522.93 5567721.77
SJ0840 732399.02 5565094.46
SJ0841 732439.41 5565044.15
SJ0842 731973.32 5562837.84
SJ0843 727032.35 5567495.35
SJ0844 730639.15 5569988.54
SJ0845 730932.35 5569541.77
SJ0846 731927.37 5566670.59
SJ0847 733233.18 5566842.83
SJ0848 733131.91 5566707.90
SJ0849 729858.85 5563396.53
SJ0850 729902.28 5563414.64
SJ0851 732986.13 5564303.36
SJ0852 732066.43 5561647.74
SJ0853 731075.58 5569335.99
SJ0854 735115.38 5564536.97
SJ0855 729053.42 5566958.48
SJ0856 729248.45 5566432.16
SJ0857 733762.59 5563980.32
SJ0858 733895.88 5567820.93
SJ0859 733787.22 5567739.70
SJ0860 727516.36 5567012.14
SJ0861 731269.41 5567505.80
SJ0862 732833.85 5566250.59
SJ0863 730213.14 5563939.55
SJ0864 730411.52 5563248.34
SJ0865 735300.04 5562306.28
SJ0866 733508.59 5565945.11
SJ0867 731075.75 5565624.53
SJ0868 733822.04 5567188.11
SJ0869 733655.60 5567246.14
SJ0870 730946.46 5564235.07
SJ0871 731012.10 5564332.16
SJ0872 728867.32 5567259.63
SJ0873 728867.51 5567153.40
SJ0874 731589.22 5565029.45
SJ0875 731134.06 5566317.18
SJ0876 732239.95 5565105.83
SJ0877 732172.29 5565061.01
SJ0878 728849.71 5566627.96
SJ0879 730216.46 5566216.41
SJ0880 734338.04 5564100.08
SJ0881 734291.79 5564109.13
SJ0882 731908.17 5569023.77
SJ0883 729512.02 5562923.41
SJ0884 729612.51 5562964.55
SJ0885 735668.31 5562198.41
SJ0886 734033.37 5567649.27
SJ0887 734121.85 5567010.30
SJ0888 732725.25 5564867.61
SJ0889 732497.19 5564613.75
SJ0890 730453.99 5566245.51
SJ0891 731564.26 5563466.78
SJ0892 731667.72 5563478.76
SJ0893 735189.27 5562798.57
SJ0894 735225.69 5562704.90
SJ0895 729307.93 5566149.36
SJ0896 729516.73 5565849.56
SJ0897 728611.72 5567143.10
SJ0898 732934.35 5565276.45
SJ0899 728025.00 5567017.60
SJ0900 735535.57 5562249.64
SJ0901 732377.71 5565032.48
SJ0902 729372.19 5567427.82
SJ0903 732985.02 5563840.80
SJ0904 732666.50 5566804.36
SJ0905 730255.36 5564333.90
SJ0906 730111.56 5564217.30
SJ0907 731125.88 5566584.21
SJ0908 735156.22 5562480.72
SJ0909 732014.18 5566250.69
SJ0910 729032.64 5567366.77
SJ0911 730092.56 5563158.00
SJ0912 732436.04 5564222.16
SJ0913 727390.43 5566469.54
SJ0914 727581.44 5566455.96
SJ0915 731613.75 5565194.42
SJ0916 731673.71 5564979.38
SJ0917 731670.99 5565345.67
SJ0918 731672.92 5565152.92
SJ0919 731340.94 5568336.15
SJ0920 731386.65 5568157.47
SJ0921 732845.95 5566755.56
SJ0922 732804.85 5566506.98
SJ0923 729670.79 5563365.59
SJ0924 729713.54 5563399.17
SJ0925 730116.21 5562209.44
SJ0926 730184.18 5562252.20
SJ0927 728777.40 5567255.60
SJ0928 732996.49 5565611.14
SJ0929 729594.68 5565133.61
SJ0930 729989.62 5564697.60
SJ0931 735307.34 5562548.30
SJ0932 732465.11 5565957.44
SJ0933 732651.42 5565953.86
SJ0934 733905.67 5562811.22
SJ0935 734128.74 5564685.25
SJ0936 734086.20 5564655.02
SJ0937 729603.39 5566420.32
SJ0938 731874.86 5564900.48
SJ0939 735659.62 5565139.31
SJ0940 733672.97 5567834.35
SJ0941 733777.65 5567734.73
SJ0942 730792.37 5564070.58
SJ0943 730686.88 5564006.22
SJ0944 729732.87 5565525.94
SJ0945 731020.80 5564574.70
SJ0946 731145.97 5564525.65
SJ0947 732511.32 5565726.36
SJ0948 732640.23 5566304.24
SJ0949 732610.60 5566406.00
SJ0950 729694.15 5566817.13
SJ0951 729405.52 5564404.87
SJ0952 729386.05 5564384.04
SJ0953 731944.17 5566802.22
SJ0954 729776.46 5563008.64
SJ0955 732634.28 5565569.82
SJ0956 732729.91 5563658.07
SJ0957 730907.18 5567593.35
SJ0958 730709.94 5567610.66
SJ0959 730475.65 5566706.39
SJ0960 730729.55 5565185.55
SJ0961 730791.58 5565050.23
SJ0962 727410.18 5568069.34
SJ0963 728611.24 5567254.60
SJ0964 732051.02 5567740.48
SJ0965 730670.57 5567796.62
SJ0966 729594.91 5565385.29
SJ0967 731565.90 5562640.98
SJ0968 735582.59 5562447.45
SJ0969 730589.87 5567832.35
SJ0970 730607.23 5567825.71
SJ0971 730522.30 5564037.20
SJ0972 729368.94 5566579.66
SJ0973 732057.34 5565541.77
SJ0974 732132.52 5564991.46
SJ0975 733418.09 5566437.98
SJ0976 733522.49 5566412.63
SJ0977 726890.30 5567703.84
SJ0978 730178.16 5565251.40
SJ0979 730347.88 5565118.01
SJ0980 730068.34 5565968.64
SJ0981 730089.10 5565521.83
SJ0982 727555.89 5566844.05
SJ0983 727623.84 5566927.46
SJ0984 733225.17 5566885.03
SJ0985 729799.82 5565310.41
SJ0986 728183.45 5566038.47
SJ0987 730837.45 5563005.54
SJ0988 731406.36 5564747.75
SJ0989 728936.78 5566998.78
SJ0990 730733.55 5565098.80
SJ0991 730679.29 5565055.94
SJ0992 731308.39 5567172.72
SJ0993 731515.12 5568126.00
SJ0994 734077.54 5564750.09
SJ0995 734121.24 5564701.12
SJ0996 732359.40 5564201.44
SJ0997 731681.05 5563666.82
SJ0998 729294.17 5565076.11
SJ0999 732271.53 5565786.54
SJ1000 732335.06 5566075.03
SJ1001 729852.29 5562842.06
SJ1002 729767.05 5562932.89
SJ1003 735158.88 5562668.64
SJ1004 729477.16 5566032.50
SJ1005 727992.28 5566972.78
SJ1006 730504.17 5564109.56
SJ1007 729273.70 5562571.59
SJ1008 729410.60 5562661.81
SJ1009 729662.51 5564575.86
SJ1010 731944.09 5567479.28
SJ1011 729997.50 5563272.19
SJ1012 731977.03 5562742.35
SJ1013 730511.66 5566544.60
SJ1014 730538.61 5566525.71
SJ1015 732126.64 5564011.76
SJ1016 728734.93 5562196.30
SJ1017 733329.48 5565716.61
SJ1018 731722.31 5565152.89
SJ1019 731329.62 5566722.56
SJ1020 730101.54 5564367.12
SJ1021 735687.85 5562717.67
SJ1022 729442.84 5564767.38
SJ1023 728236.16 5565335.48
SJ1024 729393.82 5565625.79
SJ1025 733949.44 5567980.46
SJ1026 730908.17 5563310.31
SJ1027 735314.78 5564943.80
SJ1028 730115.78 5563956.43
SJ1029 730661.97 5566474.95
SJ1030 731931.68 5566905.95
SJ1031 732104.49 5564720.38
SJ1032 735855.73 5566336.10
SJ1033 727842.60 5566245.38
SJ1034 732920.67 5563574.75
SJ1035 730273.06 5566741.11
SJ1036 730788.17 5563578.04
SJ1037 733150.78 5566036.07
SJ1038 731836.80 5565338.30
SJ1039 731739.00 5565261.51
SJ1040 734903.55 5565184.03
SJ1041 729347.57 5564550.07
SJ1042 729870.68 5564231.80
SJ1043 735793.50 5562473.60
SJ1044 732892.55 5565576.76
SJ1045 735268.16 5565412.30
SJ1046 732063.75 5563907.57
SJ1047 732337.45 5565123.77
SJ1048 728519.70 5567330.83
SJ1049 735791.38 5562901.03
SJ1050 732571.14 5566174.12
SJ1051 728911.61 5567449.72
SJ1052 728870.21 5567450.24
SJ1053 730924.11 5565079.56
SJ1054 729579.53 5564475.21
SJ1055 732040.64 5567176.14
SJ1056 734264.40 5564790.82
SJ1057 730982.41 5565607.20
SJ1058 729341.64 5562483.14
SJ1059 732559.99 5565157.09
SJ1060 729866.73 5565220.27
SJ1061 731834.88 5565618.54
SJ1062 731788.59 5566656.48
SJ1063 731512.14 5563198.65
SJ1064 733967.60 5564823.17
SJ1065 730959.65 5566334.79
SJ1066 729928.48 5563106.32
SJ1067 730158.88 5564171.72
SJ1068 731014.69 5567187.90
SJ1069 727229.93 5568114.90
SJ1070 735566.88 5561923.73
SJ1071 733930.36 5564816.33
SJ1072 735626.13 5562355.25
SJ1073 731188.70 5565726.13
SJ1074 731895.80 5566956.66
SJ1075 730588.81 5563267.90
SJ1076 731634.98 5567643.09
SJ1077 730773.81 5562032.18
SJ1078 729200.79 5566446.88
SJ1079 731537.32 5566100.14
SJ1080 732076.45 5567417.65
SJ1081 727009.20 5567626.17
SJ1082 733535.17 5563987.65
SJ1083 733366.68 5563909.79
SJ1084 731841.82 5566944.28
SJ1085 730730.75 5565841.07
SJ1086 736018.69 5562701.49
SJ1087 733738.56 5564344.27
SJ1088 732162.67 5566660.55
SJ1089 734272.02 5562371.47
SJ1090 730039.89 5561963.07
SJ1091 730872.37 5569636.84
SJ1092 728895.08 5566644.04
SJ1093 729761.35 5563167.39
SJ1094 731663.62 5564767.78
SJ1095 735766.46 5563179.61
SJ1096 731310.70 5566493.21
SJ1097 729507.99 5565414.94
SJ1098 732869.46 5560474.10
SJ1099 730759.29 5568362.92
SJ1100 733989.51 5564234.64
SJ1101 733276.69 5565505.56
SJ1102 734996.63 5562574.77
SJ1103 729863.38 5566668.41
SJ1104 732452.03 5566437.18
SJ1105 729278.97 5566945.87
SJ1106 729317.66 5566841.51
SJ1107 729991.87 5568177.87
SJ1108 734230.20 5563959.01
SJ1109 729395.19 5565817.24
SJ1110 735015.03 5562768.54
SJ1111 733458.35 5566908.82
SJ1112 731588.30 5567819.18
SJ1113 734170.59 5562647.42
SJ1114 727567.27 5566414.02
SJ1115 734949.21 5565018.68
SJ1116 729911.87 5565656.23
SJ1117 730101.87 5561644.60
SJ1118 733772.91 5567949.93
SJ1119 728924.85 5561936.88
SJ1120 733774.90 5564301.72
SJ1121 731905.18 5564652.74
SJ1122 733517.46 5567947.19
SJ1123 731146.75 5565633.07
SJ1124 733567.04 5563455.41
SJ1125 733099.26 5565388.65
SJ1126 732344.42 5564050.75
SJ1127 729149.89 5561879.98
SJ1128 729061.01 5561971.60
SJ1129 731531.69 5564609.73
SJ1130 730729.57 5565252.89
SJ1131 730408.36 5563076.83
SJ1132 728533.31 5567444.22
SJ1133 732358.38 5566837.34
SJ1134 734739.90 5564815.98
SJ1135 735417.23 5562884.57
SJ1136 729645.96 5563995.55
SJ1137 728857.17 5566785.50
SJ1138 729722.41 5564135.19
SJ1139 727496.96 5566036.11
SJ1140 734391.74 5566972.12
SJ1141 729597.48 5566422.72
SJ1142 735547.73 5562788.20
SJ1143 730939.80 5563822.40
SJ1144 733785.87 5567161.10
SJ1145 733098.29 5564282.51
SJ1146 732717.16 5565359.86
SJ1147 729646.66 5564778.40
SJ1148 732520.72 5565334.49
SJ1149 728913.36 5566535.03
SJ1150 731344.87 5568790.27
SJ1151 731410.13 5568640.96
SJ1152 733963.62 5564651.87
SJ1153 729346.60 5566861.25
SJ1154 736242.42 5564737.54
SJ1155 731310.50 5568423.00
SJ1156 727858.59 5567018.29
SJ1157 730646.48 5564609.91
SJ1158 731869.50 5567018.69
SJ1159 733073.02 5566340.23
SJ1160 731826.67 5566312.30
SJ1161 736109.28 5562755.78
SJ1162 731408.70 5567454.94
SJ1163 732895.82 5567035.05
SJ1164 728704.04 5566708.24
SJ1165 730167.37 5563834.52
SJ1166 730882.68 5565283.46
SJ1167 733617.32 5566311.14
SJ1168 728867.21 5567297.50
SJ1169 729608.52 5566675.34
SJ1170 733123.44 5566795.00
SJ1171 729679.11 5566169.95
SJ1172 731145.18 5566376.19
SJ1173 728772.08 5567415.45
SJ1174 732744.34 5565110.89
SJ1175 731645.89 5567107.37
SJ1176 729161.31 5562080.65
SJ1177 731609.25 5566978.10
SJ1178 733309.07 5563818.97
SJ1179 727524.18 5567021.79
SJ1180 734235.07 5562984.72
SJ1181 734021.30 5564596.95
SJ1182 733391.96 5563385.07
SJ1183 730644.56 5566337.10
SJ1184 730548.22 5565160.29
SJ1185 730290.62 5564429.20
SJ1186 729819.55 5563325.85
SJ1187 731767.16 5565620.58
SJ1188 733014.96 5566111.32
SJ1189 734470.79 5564472.34
SJ1190 732476.83 5564955.23
SJ1191 729804.69 5563907.20
SJ1192 729197.27 5567367.11
SJ1193 735933.46 5562341.99
SJ1194 730274.74 5563195.54
SJ1195 728691.22 5566863.74
SJ1196 734440.02 5564129.65
SJ1197 734407.61 5564276.08
SJ1198 731061.65 5565491.96
SJ1199 727752.01 5567112.94
SJ1200 729541.16 5564120.44
SJ1201 729596.28 5563469.01
SJ1202 736364.22 5564830.52
SJ1203 726673.81 5567509.28
SJ1204 731187.08 5567871.68
SJ1205 732601.71 5568532.88
SJ1206 731497.30 5566888.14
SJ1207 734320.81 5564468.89
SJ1208 732544.53 5563520.96
SJ1209 730124.16 5563555.59
SJ1210 728993.97 5567159.04
SJ1211 733622.67 5564216.09
SJ1212 729618.74 5566946.55
SJ1213 732451.17 5562432.64
SJ1214 732352.41 5562609.32
SJ1215 732377.93 5567125.00
SJ1216 728147.21 5567363.13
SJ1217 731221.12 5567234.12
SJ1218 731166.07 5564740.69
SJ1219 731905.46 5563855.03
SJ1220 730562.53 5562811.99
SJ1221 735781.79 5562149.50
SJ1222 729601.52 5562340.04
SJ1223 733061.18 5564986.69
SJ1224 732223.81 5566205.32
SJ1225 732821.03 5566457.27
SJ1226 731015.37 5561285.39
SJ1227 730030.96 5564024.61
SJ1228 732740.57 5563990.82
SJ1229 729487.94 5566286.01
SJ1230 731343.25 5566941.42
SJ1231 730722.46 5567870.29
SJ1232 729146.97 5561713.25
SJ1233 732031.76 5563352.41
SJ1234 730152.03 5565386.69
SJ1235 731412.23 5567008.92
SJ1236 733940.24 5567121.97
SJ1237 730001.84 5564150.07
SJ1238 734328.64 5563130.70
SJ1239 730639.46 5562873.15

[TAGS]
;;Object Type Name Tag
NODE SJ0002 cso
NODE SJ0051 cso
NODE SJ0052 cso
NODE SJ0139 cso
NODE SJ0156 cso
NODE SJ0170 cso
NODE SJ0233 cso
NODE SJ0315 pump
NODE SJ0321 pump
NODE SJ0335 cso
NODE SJ0337 pump
NODE SJ0344 pump
NODE SJ0352 pump
NODE SJ0376 pump
NODE SJ0396 cso
NODE SJ0441 cso
NODE SJ0477 pump
NODE SJ0478 pump
NODE SJ0486 pump
NODE SJ0489 cso
NODE SJ0546 pump
NODE SJ0547 cso
NODE SJ0597 cso
NODE SJ0640 pump
NODE SJ0646 cso
NODE SJ0654 cso
NODE SJ0655 cso
NODE SJ0674 cso
NODE SJ0684 pump
NODE SJ0685 pump
NODE SJ0729 pump
NODE SJ0748 pump
NODE SJ0749 pump
NODE SJ0760 pump
NODE SJ0803 cso
NODE SJ0824 pump
NODE SJ0835 cso
NODE SJ0851 pump
NODE SJ0864 pump
NODE SJ0971 pump
NODE SJ1028 pump
NODE SJ1075 pump
NODE SJ1143 pump
NODE SJ1209 pump
NODE SJ1239 cso
