[TITLE]

[JUNCTIONS]
;ID                      Elevation       Demand Pattern                 
 WJ0001                        207.55               0                            ;
 WJ0002                        207.19               0                            ;
 WJ0003                        207.19  0.072969646471                            ;
 WJ0004                        209.88   0.13505785443                            ;
 WJ0005                        214.85               0                            ;
 WJ0006                        213.36               0                            ;
 WJ0007                         215.9  0.060808038725                            ;
 WJ0008                        214.88               0                            ;
 WJ0009                           224               0                            ;
 WJ0010                        222.75               0                            ;
 WJ0011                        224.73               0                            ;
 WJ0012                        224.33   0.13569793905                            ;
 WJ0013                        240.76  0.052486938689                            ;
 WJ0014                         240.4               0                            ;
 WJ0015                        229.94   0.20738741628                            ;
 WJ0016                        229.08               0                            ;
 WJ0017                        231.49   0.23107054716                            ;
 WJ0018                        221.84   0.30916087057                            ;
 WJ0019                        221.45               0                            ;
 WJ0020                        222.11   0.25539376265                            ;
 WJ0021                        228.35    0.2150684317                            ;
 WJ0022                        231.43               0                            ;
 WJ0023                        208.66   0.15105996989                            ;
 WJ0024                         208.7               0                            ;
 WJ0025                        207.96   0.16194140839                            ;
 WJ0026                        230.36   0.13953844676                            ;
 WJ0027                        229.84               0                            ;
 WJ0028                        232.28   0.14849963141                            ;
 WJ0029                        227.48               0                            ;
 WJ0030                        208.67  0.017922369309                            ;
 WJ0031                        208.64   0.03136414629                            ;
 WJ0032                        208.68 0.0044805923271                            ;
 WJ0033                         227.5               0                            ;
 WJ0034                        224.28    0.1517000545                            ;
 WJ0035                        227.66               0                            ;
 WJ0036                        230.14   0.18626462389                            ;
 WJ0037                         245.5   0.19714606239                            ;
 WJ0038                        243.03   0.17538318538                            ;
 WJ0039                        224.33  0.076170069561                            ;
 WJ0040                        222.11               0                            ;
 WJ0041                        225.63  0.065928715671                            ;
 WJ0042                         213.6               0                            ;
 WJ0043                        214.16               0                            ;
 WJ0044                        213.58               0                            ;
 WJ0045                         213.3               0                            ;
 WJ0046                        235.62   0.16066123916                            ;
 WJ0047                         234.6               0                            ;
 WJ0048                        240.25               0                            ;
 WJ0049                        236.45               0                            ;
 WJ0050                        209.09   0.33732459377                            ;
 WJ0051                         208.9               0                            ;
 WJ0052                         230.3               0                            ;
 WJ0053                        229.74               0                            ;
 WJ0054                           231               0                            ;
 WJ0055                        230.18   0.27203596272                            ;
 WJ0056                        207.83   0.21954902403                            ;
 WJ0057                        207.63   0.42309593261                            ;
 WJ0058                        209.04               0                            ;
 WJ0059                        208.97               0                            ;
 WJ0060                        209.23   0.25155325494                            ;
 WJ0061                        209.21               0                            ;
 WJ0062                        220.39               0                            ;
 WJ0063                        219.53               0                            ;
 WJ0064                        225.11               0                            ;
 WJ0065                        220.32               0                            ;
 WJ0066                        220.27               0                            ;
 WJ0067                         226.7   0.28227731661                            ;
 WJ0068                        227.06               0                            ;
 WJ0069                        217.18               0                            ;
 WJ0070                        214.92               0                            ;
 WJ0071                        217.05               0                            ;
 WJ0072                        217.37  0.071049392616                            ;
 WJ0073                        207.99    0.3136414629                            ;
 WJ0074                        207.53               0                            ;
 WJ0075                        212.23               0                            ;
 WJ0076                         212.4               0                            ;
 WJ0077                        214.84               0                            ;
 WJ0078                        210.86  0.079370492652                            ;
 WJ0079                        219.87   0.21058783938                            ;
 WJ0080                        217.54               0                            ;
 WJ0081                        221.19               0                            ;
 WJ0082                        220.82               0                            ;
 WJ0083                           222               0                            ;
 WJ0084                        221.14   0.28035706276                            ;
 WJ0085                        235.13               0                            ;
 WJ0086                        234.38               0                            ;
 WJ0087                        235.74               0                            ;
 WJ0088                        235.33   0.27331613196                            ;
 WJ0089                        234.56   0.21122792399                            ;
 WJ0090                        234.64               0                            ;
 WJ0091                        208.91  0.080650661888                            ;
 WJ0092                        209.59               0                            ;
 WJ0093                        208.98               0                            ;
 WJ0094                        209.44               0                            ;
 WJ0095                        207.57               0                            ;
 WJ0096                        209.63               0                            ;
 WJ0097                        243.16   0.25475367803                            ;
 WJ0098                        242.47               0                            ;
 WJ0099                        244.38               0                            ;
 WJ0100                        207.02               0                            ;
 WJ0101                        207.33               0                            ;
 WJ0102                        207.94   0.11457514665                            ;
 WJ0103                         236.3   0.18050386232                            ;
 WJ0104                        234.73   0.15426039298                            ;
 WJ0105                        236.86               0                            ;
 WJ0106                        229.19               0                            ;
 WJ0107                        228.36               0                            ;
 WJ0108                        229.31               0                            ;
 WJ0109                        230.04               0                            ;
 WJ0110                        214.41               0                            ;
 WJ0111                        214.43               0                            ;
 WJ0112                        214.81               0                            ;
 WJ0113                        222.95  0.063368377198                            ;
 WJ0114                        223.15               0                            ;
 WJ0115                        211.76               0                            ;
 WJ0116                         211.4               0                            ;
 WJ0117                        212.49    0.3629279785                            ;
 WJ0118                        210.22               0                            ;
 WJ0119                        214.23   0.03136414629                            ;
 WJ0120                         212.9   0.18626462389                            ;
 WJ0121                        233.02   0.18754479312                            ;
 WJ0122                        232.27               0                            ;
 WJ0123                        233.93               0                            ;
 WJ0124                         233.3    0.1939456393                            ;
 WJ0125                        227.28   0.21058783938                            ;
 WJ0126                        227.84               0                            ;
 WJ0127                        226.89   0.17922369309                            ;
 WJ0128                         226.8               0                            ;
 WJ0129                        227.21               0                            ;
 WJ0130                        225.66   0.11713548512                            ;
 WJ0131                        223.02               0                            ;
 WJ0132                         222.2               0                            ;
 WJ0133                        223.18               0                            ;
 WJ0134                        208.53  0.078090323416                            ;
 WJ0135                         208.4               0                            ;
 WJ0136                         234.4   0.20162665472                            ;
 WJ0137                        234.46               0                            ;
 WJ0138                        211.05    0.2854777397                            ;
 WJ0139                        211.19               0                            ;
 WJ0140                        241.13    0.1798637777                            ;
 WJ0141                        240.61               0                            ;
 WJ0142                        241.42               0                            ;
 WJ0143                        217.79   0.12097599283                            ;
 WJ0144                         217.2               0                            ;
 WJ0145                        219.52               0                            ;
 WJ0146                        234.97               0                            ;
 WJ0147                         233.7               0                            ;
 WJ0148                        235.83   0.14721946218                            ;
 WJ0149                        235.18               0                            ;
 WJ0150                        215.89               0                            ;
 WJ0151                        215.59               0                            ;
 WJ0152                        216.83               0                            ;
 WJ0153                        216.82               0                            ;
 WJ0154                        223.69   0.12801692363                            ;
 WJ0155                        222.52               0                            ;
 WJ0156                        216.74   0.31236129366                            ;
 WJ0157                        216.69               0                            ;
 WJ0158                        209.26               0                            ;
 WJ0159                        208.98               0                            ;
 WJ0160                           208   0.13121734672                            ;
 WJ0161                        209.66   0.12481650054                            ;
 WJ0162                        254.32   0.23427097025                            ;
 WJ0163                        254.34               0                            ;
 WJ0164                         207.5   0.20418699319                            ;
 WJ0165                        207.72               0                            ;
 WJ0166                         220.6   0.23299080101                            ;
 WJ0167                        221.41               0                            ;
 WJ0168                        209.44               0                            ;
 WJ0169                        210.52               0                            ;
 WJ0170                        208.61  0.049286515599                            ;
 WJ0171                        210.53  0.013441776981                            ;
 WJ0172                        214.24   0.50246642526                            ;
 WJ0173                        214.72               0                            ;
 WJ0174                        218.79               0                            ;
 WJ0175                        219.82  0.080650661888                            ;
 WJ0176                        218.99   0.18050386232                            ;
 WJ0177                        219.89               0                            ;
 WJ0178                        214.67               0                            ;
 WJ0179                        214.75               0                            ;
 WJ0180                        215.47               0                            ;
 WJ0181                        214.78   0.18626462389                            ;
 WJ0182                        220.23               0                            ;
 WJ0183                        220.13               0                            ;
 WJ0184                        225.25               0                            ;
 WJ0185                        220.51 0.0089611846543                            ;
 WJ0186                         234.2               0                            ;
 WJ0187                        233.25   0.27523638581                            ;
 WJ0188                        234.26    0.2784368089                            ;
 WJ0189                        207.28  0.079370492652                            ;
 WJ0190                        207.45               0                            ;
 WJ0191                        234.16               0                            ;
 WJ0192                        234.22   0.16962242381                            ;
 WJ0193                        233.55   0.16322157763                            ;
 WJ0194                        209.16               0                            ;
 WJ0195                        208.22               0                            ;
 WJ0196                        209.49               0                            ;
 WJ0197                        209.47               0                            ;
 WJ0198                        234.61               0                            ;
 WJ0199                        235.93   0.31300137828                            ;
 WJ0200                        249.06   0.26243469345                            ;
 WJ0201                        247.39   0.26883553963                            ;
 WJ0202                        250.92    0.2854777397                            ;
 WJ0203                        243.89   0.25987435497                            ;
 WJ0204                        243.42               0                            ;
 WJ0205                        244.09   0.21378826247                            ;
 WJ0206                        242.87               0                            ;
 WJ0207                         244.8  0.026883553963                            ;
 WJ0208                        221.22  0.055047277162                            ;
 WJ0209                        220.59               0                            ;
 WJ0210                        244.32   0.25539376265                            ;
 WJ0211                        244.47               0                            ;
 WJ0212                        219.82               0                            ;
 WJ0213                        219.26               0                            ;
 WJ0214                        220.13               0                            ;
 WJ0215                        220.34  0.099213115815                            ;
 WJ0216                        210.44               0                            ;
 WJ0217                        210.82    0.2573140165                            ;
 WJ0218                        209.85   0.32900349374                            ;
 WJ0219                        228.11               0                            ;
 WJ0220                        227.92               0                            ;
 WJ0221                        228.89               0                            ;
 WJ0222                        228.55   0.17410301614                            ;
 WJ0223                        244.86               0                            ;
 WJ0224                        243.47    0.2573140165                            ;
 WJ0225                        215.62               0                            ;
 WJ0226                        215.53               0                            ;
 WJ0227                         215.6    0.2150684317                            ;
 WJ0228                        215.64               0                            ;
 WJ0229                        216.01               0                            ;
 WJ0230                        216.07               0                            ;
 WJ0231                        215.96   0.16386166225                            ;
 WJ0232                        215.74               0                            ;
 WJ0233                        224.85 0.0089611846543                            ;
 WJ0234                        217.85   0.03136414629                            ;
 WJ0235                        215.66               0                            ;
 WJ0236                        223.45               0                            ;
 WJ0237                         222.5   0.16898233919                            ;
 WJ0238                        207.51               0                            ;
 WJ0239                        207.42  0.040325330944                            ;
 WJ0240                        210.58               0                            ;
 WJ0241                        209.09               0                            ;
 WJ0242                        221.69               0                            ;
 WJ0243                        220.56               0                            ;
 WJ0244                        222.22   0.13313760058                            ;
 WJ0245                        224.03   0.10497387738                            ;
 WJ0246                        216.22    0.1869047085                            ;
 WJ0247                        216.18               0                            ;
 WJ0248                        216.63   0.16962242381                            ;
 WJ0249                        214.78               0                            ;
 WJ0250                        214.78               0                            ;
 WJ0251                        211.67               0                            ;
 WJ0252                        215.81  0.076810154179                            ;
 WJ0253                        256.63  0.013441776981                            ;
 WJ0254                        253.11               0                            ;
 WJ0255                        261.58               0                            ;
 WJ0256                        213.36               0                            ;
 WJ0257                         213.2               0                            ;
 WJ0258                        214.11               0                            ;
 WJ0259                        224.83  0.081930831125                            ;
 WJ0260                        223.99               0                            ;
 WJ0261                         227.1               0                            ;
 WJ0262                        227.12   0.33732459377                            ;
 WJ0263                        246.12   0.10689413123                            ;
 WJ0264                        244.49   0.18626462389                            ;
 WJ0265                        228.19               0                            ;
 WJ0266                        236.28               0                            ;
 WJ0267                        224.62 0.0044805923271                            ;
 WJ0268                        228.98               0                            ;
 WJ0269                        229.38   0.34948620152                            ;
 WJ0270                         229.4   0.27331613196                            ;
 WJ0271                        210.77  0.013441776981                            ;
 WJ0272                        214.14  0.036484823235                            ;
 WJ0273                        221.84  0.099853200433                            ;
 WJ0274                        216.91  0.058247700253                            ;
 WJ0275                        216.64               0                            ;
 WJ0276                        246.69   0.13121734672                            ;
 WJ0277                        246.41               0                            ;
 WJ0278                        247.19               0                            ;
 WJ0279                        225.15   0.20610724705                            ;
 WJ0280                        226.15   0.20546716243                            ;
 WJ0281                         222.8  0.044805923271                            ;
 WJ0282                        224.24               0                            ;
 WJ0283                        223.63  0.063368377198                            ;
 WJ0284                        224.09               0                            ;
 WJ0285                        209.33   0.06272829258                            ;
 WJ0286                        209.98               0                            ;
 WJ0287                        219.49  0.076810154179                            ;
 WJ0288                        219.52               0                            ;
 WJ0289                        217.74   0.32580307064                            ;
 WJ0290                        217.62    0.3136414629                            ;
 WJ0291                        208.14  0.053767107926                            ;
 WJ0292                        208.25               0                            ;
 WJ0293                        214.01               0                            ;
 WJ0294                        213.34  0.088971761925                            ;
 WJ0295                        214.38               0                            ;
 WJ0296                        215.59  0.094732523488                            ;
 WJ0297                        218.89   0.11905573898                            ;
 WJ0298                        218.17               0                            ;
 WJ0299                        239.43               0                            ;
 WJ0300                        238.01               0                            ;
 WJ0301                        239.93               0                            ;
 WJ0302                        240.84               0                            ;
 WJ0303                        239.42   0.25091317032                            ;
 WJ0304                        211.74               0                            ;
 WJ0305                        212.01  0.055047277162                            ;
 WJ0306                        213.94               0                            ;
 WJ0307                        227.54               0                            ;
 WJ0308                        227.45               0                            ;
 WJ0309                        227.71               0                            ;
 WJ0310                        227.86   0.25539376265                            ;
 WJ0311                        211.32               0                            ;
 WJ0312                        211.04               0                            ;
 WJ0313                        211.44               0                            ;
 WJ0314                         211.1  0.048006346362                            ;
 WJ0315                        210.42  0.087691592688                            ;
 WJ0316                        209.89               0                            ;
 WJ0317                        226.97   0.10689413123                            ;
 WJ0318                        227.04               0                            ;
 WJ0319                        219.02               0                            ;
 WJ0320                        218.84               0                            ;
 WJ0321                        219.61               0                            ;
 WJ0322                        218.99               0                            ;
 WJ0323                        234.71   0.23491105487                            ;
 WJ0324                        233.94   0.26499503192                            ;
 WJ0325                        235.89               0                            ;
 WJ0326                        214.44  0.072329561852                            ;
 WJ0327                        228.66   0.20610724705                            ;
 WJ0328                        229.31               0                            ;
 WJ0329                        208.43   0.35140645537                            ;
 WJ0330                        208.15               0                            ;
 WJ0331                        237.81   0.14913971603                            ;
 WJ0332                         237.7               0                            ;
 WJ0333                         219.7               0                            ;
 WJ0334                        220.16   0.42949677879                            ;
 WJ0335                        217.68               0                            ;
 WJ0336                        218.36               0                            ;
 WJ0337                        218.56    0.1478595468                            ;
 WJ0338                        233.75               0                            ;
 WJ0339                        232.65               0                            ;
 WJ0340                        234.59               0                            ;
 WJ0341                        233.63   0.24515240876                            ;
 WJ0342                        229.34   0.17474310076                            ;
 WJ0343                        229.07               0                            ;
 WJ0344                         229.9   0.30468027825                            ;
 WJ0345                        210.41               0                            ;
 WJ0346                        209.98               0                            ;
 WJ0347                         210.8               0                            ;
 WJ0348                        210.35    0.1267367544                            ;
 WJ0349                        208.28  0.022402961636                            ;
 WJ0350                        207.99               0                            ;
 WJ0351                        210.95   0.19074521621                            ;
 WJ0352                        211.01               0                            ;
 WJ0353                        232.21   0.16002115454                            ;
 WJ0354                        232.65               0                            ;
 WJ0355                        213.92               0                            ;
 WJ0356                        213.89               0                            ;
 WJ0357                        214.66   0.54087150235                            ;
 WJ0358                        213.71    0.3910917017                            ;
 WJ0359                        233.55   0.21442834708                            ;
 WJ0360                        246.39   0.12161607745                            ;
 WJ0361                        245.11   0.20162665472                            ;
 WJ0362                        240.12               0                            ;
 WJ0363                         239.8               0                            ;
 WJ0364                        240.49               0                            ;
 WJ0365                        239.87    0.1869047085                            ;
 WJ0366                        241.19   0.11841565436                            ;
 WJ0367                        240.18   0.25475367803                            ;
 WJ0368                        210.92               0                            ;
 WJ0369                        232.54  0.022402961636                            ;
 WJ0370                        231.61               0                            ;
 WJ0371                        236.53 0.0044805923271                            ;
 WJ0372                        228.73   0.20162665472                            ;
 WJ0373                        228.59               0                            ;
 WJ0374                        231.23   0.23875156257                            ;
 WJ0375                        231.41               0                            ;
 WJ0376                        224.44               0                            ;
 WJ0377                        222.64               0                            ;
 WJ0378                        225.73   0.20930767014                            ;
 WJ0379                        227.18   0.22658995483                            ;
 WJ0380                           225   0.24643257799                            ;
 WJ0381                        225.62               0                            ;
 WJ0382                        215.51               0                            ;
 WJ0383                        215.56               0                            ;
 WJ0384                         215.2               0                            ;
 WJ0385                        215.96   0.18946504698                            ;
 WJ0386                         226.3   0.23683130872                            ;
 WJ0387                        226.44               0                            ;
 WJ0388                        227.72   0.15362030836                            ;
 WJ0389                        217.28               0                            ;
 WJ0390                        217.16               0                            ;
 WJ0391                        216.88               0                            ;
 WJ0392                        218.47   0.14401903909                            ;
 WJ0393                         213.8  0.087691592688                            ;
 WJ0394                        215.01   0.09409243887                            ;
 WJ0395                        250.58   0.26307477806                            ;
 WJ0396                        249.25   0.28675790894                            ;
 WJ0397                        208.66               0                            ;
 WJ0398                        207.74               0                            ;
 WJ0399                        208.46               0                            ;
 WJ0400                        208.74               0                            ;
 WJ0401                        233.59   0.30532036286                            ;
 WJ0402                        233.31               0                            ;
 WJ0403                        215.36   0.19266547007                            ;
 WJ0404                        215.44               0                            ;
 WJ0405                        210.78   0.20162665472                            ;
 WJ0406                         210.7               0                            ;
 WJ0407                        209.33               0                            ;
 WJ0408                        208.32               0                            ;
 WJ0409                        210.65  0.053767107926                            ;
 WJ0410                        209.41  0.044805923271                            ;
 WJ0411                        209.85               0                            ;
 WJ0412                        218.36   0.30019968592                            ;
 WJ0413                         218.4               0                            ;
 WJ0414                         216.9   0.29763934745                            ;
 WJ0415                        216.15               0                            ;
 WJ0416                        216.03   0.20482707781                            ;
 WJ0417                        221.53  0.085131254216                            ;
 WJ0418                        221.55  0.032644315526                            ;
 WJ0419                        222.12               0                            ;
 WJ0420                        217.43               0                            ;
 WJ0421                        217.37               0                            ;
 WJ0422                        217.39    0.1939456393                            ;
 WJ0423                        217.85               0                            ;
 WJ0424                        227.06    0.0140818616                            ;
 WJ0425                        225.62               0                            ;
 WJ0426                        234.55               0                            ;
 WJ0427                        234.67   0.35524696308                            ;
 WJ0428                        215.45   0.22658995483                            ;
 WJ0429                        231.53   0.21762877018                            ;
 WJ0430                        244.75 0.0044805923271                            ;
 WJ0431                        243.43               0                            ;
 WJ0432                        207.43               0                            ;
 WJ0433                         207.9  0.048006346362                            ;
 WJ0434                        207.46               0                            ;
 WJ0435                        207.17               0                            ;
 WJ0436                        208.69               0                            ;
 WJ0437                        207.86               0                            ;
 WJ0438                        208.38   0.21826885479                            ;
 WJ0439                         208.8   0.38277060166                            ;
 WJ0440                        212.73               0                            ;
 WJ0441                         217.8   0.19138530083                            ;
 WJ0442                        213.13   0.11201480818                            ;
 WJ0443                        211.87               0                            ;
 WJ0444                        214.75  0.080650661888                            ;
 WJ0445                        218.55               0                            ;
 WJ0446                        217.04               0                            ;
 WJ0447                        218.65               0                            ;
 WJ0448                        216.74    0.2009865701                            ;
 WJ0449                        217.28   0.18434437003                            ;
 WJ0450                        234.41   0.26307477806                            ;
 WJ0451                        233.13   0.25603384726                            ;
 WJ0452                        235.31               0                            ;
 WJ0453                        214.77               0                            ;
 WJ0454                        215.33   0.26179460883                            ;
 WJ0455                        214.77               0                            ;
 WJ0456                        235.78               0                            ;
 WJ0457                        228.18  0.053767107926                            ;
 WJ0458                        227.62  0.035844738617                            ;
 WJ0459                        228.62  0.022402961636                            ;
 WJ0460                        227.87               0                            ;
 WJ0461                        226.15               0                            ;
 WJ0462                        228.21               0                            ;
 WJ0463                        207.64               0                            ;
 WJ0464                        207.63               0                            ;
 WJ0465                        208.19   0.30916087057                            ;
 WJ0466                        207.89   0.24707266261                            ;
 WJ0467                         237.4    0.2150684317                            ;
 WJ0468                        237.25               0                            ;
 WJ0469                        239.13   0.10689413123                            ;
 WJ0470                        210.28               0                            ;
 WJ0471                        209.75  0.033924484763                            ;
 WJ0472                        210.43  0.044165838653                            ;
 WJ0473                        217.31   0.15234013912                            ;
 WJ0474                        217.11               0                            ;
 WJ0475                        234.76   0.18626462389                            ;
 WJ0476                        233.66   0.31300137828                            ;
 WJ0477                        214.85               0                            ;
 WJ0478                        214.54               0                            ;
 WJ0479                        216.34  0.090251931161                            ;
 WJ0480                        215.73               0                            ;
 WJ0481                        208.32   0.42117567875                            ;
 WJ0482                        207.83               0                            ;
 WJ0483                        223.09   0.18818487774                            ;
 WJ0484                        222.39   0.30019968592                            ;
 WJ0485                        229.95   0.23043046254                            ;
 WJ0486                        230.06               0                            ;
 WJ0487                        235.64   0.13569793905                            ;
 WJ0488                        235.53               0                            ;
 WJ0489                        214.67   0.18050386232                            ;
 WJ0490                        214.58               0                            ;
 WJ0491                        217.57    0.3066005321                            ;
 WJ0492                        217.13               0                            ;
 WJ0493                        217.71               0                            ;
 WJ0494                        229.64  0.092812269634                            ;
 WJ0495                        231.25   0.11649540051                            ;
 WJ0496                        262.23  0.010241353891                            ;
 WJ0497                        246.91               0                            ;
 WJ0498                        249.09   0.16642200072                            ;
 WJ0499                        246.62   0.13185743134                            ;
 WJ0500                        208.26               0                            ;
 WJ0501                        208.51               0                            ;
 WJ0502                        208.51   0.13121734672                            ;
 WJ0503                        207.56               0                            ;
 WJ0504                        207.49               0                            ;
 WJ0505                        207.82               0                            ;
 WJ0506                        207.85    0.2573140165                            ;
 WJ0507                        237.57  0.070409307998                            ;
 WJ0508                        228.91               0                            ;
 WJ0509                        234.87   0.18242411618                            ;
 WJ0510                        237.11               0                            ;
 WJ0511                        235.58   0.16258149301                            ;
 WJ0512                        230.54  0.069129138762                            ;
 WJ0513                        228.81               0                            ;
 WJ0514                        224.25  0.096652777343                            ;
 WJ0515                        223.71               0                            ;
 WJ0516                        210.42               0                            ;
 WJ0517                        218.22   0.19906631625                            ;
 WJ0518                        217.88   0.18626462389                            ;
 WJ0519                        215.85               0                            ;
 WJ0520                        216.02   0.03136414629                            ;
 WJ0521                        214.15  0.058247700253                            ;
 WJ0522                         233.3   0.18306420079                            ;
 WJ0523                        232.64               0                            ;
 WJ0524                         235.3   0.15041988527                            ;
 WJ0525                        212.86  0.053767107926                            ;
 WJ0526                        215.34  0.013441776981                            ;
 WJ0527                        208.11               0                            ;
 WJ0528                        208.25               0                            ;
 WJ0529                        207.97               0                            ;
 WJ0530                         207.9   0.23299080101                            ;
 WJ0531                        228.46               0                            ;
 WJ0532                        228.97   0.13953844676                            ;
 WJ0533                        232.06   0.26243469345                            ;
 WJ0534                        231.46               0                            ;
 WJ0535                        232.34               0                            ;
 WJ0536                        258.42               0                            ;
 WJ0537                        257.11               0                            ;
 WJ0538                        258.49               0                            ;
 WJ0539                         258.4   0.13313760058                            ;
 WJ0540                        212.64               0                            ;
 WJ0541                        211.97               0                            ;
 WJ0542                        212.88               0                            ;
 WJ0543                        213.37  0.061448123344                            ;
 WJ0544                        212.62               0                            ;
 WJ0545                        214.78   0.21890893941                            ;
 WJ0546                        214.91               0                            ;
 WJ0547                        226.84   0.12929709287                            ;
 WJ0548                        222.93               0                            ;
 WJ0549                        240.23   0.11649540051                            ;
 WJ0550                        237.83  0.044805923271                            ;
 WJ0551                         207.7               0                            ;
 WJ0552                        207.79               0                            ;
 WJ0553                        217.12               0                            ;
 WJ0554                        217.45   0.12545658516                            ;
 WJ0555                        223.12   0.03136414629                            ;
 WJ0556                        221.88               0                            ;
 WJ0557                        234.47    0.2150684317                            ;
 WJ0558                        234.36               0                            ;
 WJ0559                        225.19               0                            ;
 WJ0560                        220.04   0.12545658516                            ;
 WJ0561                         226.3               0                            ;
 WJ0562                        225.88  0.053767107926                            ;
 WJ0563                        226.62               0                            ;
 WJ0564                         227.5  0.017922369309                            ;
 WJ0565                        206.98               0                            ;
 WJ0566                        237.61   0.29379883974                            ;
 WJ0567                        227.74               0                            ;
 WJ0568                        225.11               0                            ;
 WJ0569                        227.37               0                            ;
 WJ0570                        219.43   0.17026250843                            ;
 WJ0571                        219.57               0                            ;
 WJ0572                         217.1               0                            ;
 WJ0573                        216.38   0.39941280173                            ;
 WJ0574                         217.9               0                            ;
 WJ0575                        217.88               0                            ;
 WJ0576                        224.93   0.14337895447                            ;
 WJ0577                        222.83   0.22851020868                            ;
 WJ0578                        208.02               0                            ;
 WJ0579                        207.66               0                            ;
 WJ0580                        207.14               0                            ;
 WJ0581                        244.25   0.23811147796                            ;
 WJ0582                        243.59               0                            ;
 WJ0583                        210.83   0.23491105487                            ;
 WJ0584                        209.84               0                            ;
 WJ0585                        230.08               0                            ;
 WJ0586                        250.02   0.20354690858                            ;
 WJ0587                        249.85               0                            ;
 WJ0588                        216.27   0.23747139334                            ;
 WJ0589                        217.47  0.081290746507                            ;
 WJ0590                         214.7   0.33220391683                            ;
 WJ0591                        214.17   0.10753421585                            ;
 WJ0592                        220.02               0                            ;
 WJ0593                        215.19               0                            ;
 WJ0594                        248.85               0                            ;
 WJ0595                        244.82   0.17922369309                            ;
 WJ0596                         211.6               0                            ;
 WJ0597                        211.89               0                            ;
 WJ0598                        212.56               0                            ;
 WJ0599                        210.79               0                            ;
 WJ0600                        232.75   0.19842623163                            ;
 WJ0601                        233.59               0                            ;
 WJ0602                        251.42               0                            ;
 WJ0603                        251.58               0                            ;
 WJ0604                        215.21   0.11713548512                            ;
 WJ0605                        213.63    0.1517000545                            ;
 WJ0606                        230.85   0.23811147796                            ;
 WJ0607                        231.88   0.26243469345                            ;
 WJ0608                        232.02   0.19138530083                            ;
 WJ0609                        213.93               0                            ;
 WJ0610                        213.12   0.29443892435                            ;
 WJ0611                        213.94               0                            ;
 WJ0612                        214.35   0.24515240876                            ;
 WJ0613                         214.5   0.22402961636                            ;
 WJ0614                        214.86               0                            ;
 WJ0615                        235.73               0                            ;
 WJ0616                        236.08   0.15554056221                            ;
 WJ0617                        241.41               0                            ;
 WJ0618                        241.21   0.26819545501                            ;
 WJ0619                         248.9               0                            ;
 WJ0620                        249.03               0                            ;
 WJ0621                        207.76               0                            ;
 WJ0622                        227.08               0                            ;
 WJ0623                        225.75               0                            ;
 WJ0624                        228.35               0                            ;
 WJ0625                        227.89               0                            ;
 WJ0626                        223.74               0                            ;
 WJ0627                        229.91               0                            ;
 WJ0628                        228.82  0.050566684835                            ;
 WJ0629                        247.24               0                            ;
 WJ0630                         247.3               0                            ;
 WJ0631                        247.34   0.17794352385                            ;
 WJ0632                        247.89   0.12417641592                            ;
 WJ0633                        222.53               0                            ;
 WJ0634                        222.13               0                            ;
 WJ0635                        217.76   0.26371486268                            ;
 WJ0636                        217.04               0                            ;
 WJ0637                        211.05               0                            ;
 WJ0638                        210.04  0.098573031197                            ;
 WJ0639                        208.64  0.070409307998                            ;
 WJ0640                        208.94               0                            ;
 WJ0641                        213.09               0                            ;
 WJ0642                        212.85               0                            ;
 WJ0643                        234.67   0.21634860094                            ;
 WJ0644                        207.82               0                            ;
 WJ0645                        207.96               0                            ;
 WJ0646                        207.42               0                            ;
 WJ0647                        215.65               0                            ;
 WJ0648                        215.84               0                            ;
 WJ0649                        215.45   0.23235071639                            ;
 WJ0650                        217.14   0.18882496236                            ;
 WJ0651                         217.4               0                            ;
 WJ0652                        207.91               0                            ;
 WJ0653                        207.81               0                            ;
 WJ0654                        208.03               0                            ;
 WJ0655                        207.47   0.20994775476                            ;
 WJ0656                        238.72               0                            ;
 WJ0657                         238.1   0.13121734672                            ;
 WJ0658                        239.42   0.17538318538                            ;
 WJ0659                        234.01               0                            ;
 WJ0660                        232.65   0.24067181643                            ;
 WJ0661                        234.09    0.2502730857                            ;
 WJ0662                         215.1               0                            ;
 WJ0663                        215.17   0.14337895447                            ;
 WJ0664                        212.47  0.087691592688                            ;
 WJ0665                        212.67               0                            ;
 WJ0666                        229.63   0.10305362352                            ;
 WJ0667                        228.31               0                            ;
 WJ0668                        224.96               0                            ;
 WJ0669                        220.76               0                            ;
 WJ0670                         215.8               0                            ;
 WJ0671                        217.14   0.19330555468                            ;
 WJ0672                         217.1   0.27459630119                            ;
 WJ0673                        238.88               0                            ;
 WJ0674                        239.34               0                            ;
 WJ0675                        239.17   0.24195198567                            ;
 WJ0676                        238.85   0.18370428541                            ;
 WJ0677                        240.97   0.19138530083                            ;
 WJ0678                        242.81   0.32132247832                            ;
 WJ0679                        222.09               0                            ;
 WJ0680                        220.88               0                            ;
 WJ0681                        216.95               0                            ;
 WJ0682                        216.86               0                            ;
 WJ0683                        217.02               0                            ;
 WJ0684                        217.62    0.2784368089                            ;
 WJ0685                        234.33   0.16834225458                            ;
 WJ0686                        233.62               0                            ;
 WJ0687                        215.45   0.13121734672                            ;
 WJ0688                        208.88               0                            ;
 WJ0689                        208.55   0.24835283185                            ;
 WJ0690                           209               0                            ;
 WJ0691                        208.83   0.30852078595                            ;
 WJ0692                        217.14  0.025603384726                            ;
 WJ0693                        225.24               0                            ;
 WJ0694                        224.52   0.23939164719                            ;
 WJ0695                        224.44   0.24707266261                            ;
 WJ0696                        225.89               0                            ;
 WJ0697                        207.72   0.21442834708                            ;
 WJ0698                        207.63               0                            ;
 WJ0699                        213.39  0.087691592688                            ;
 WJ0700                        231.68   0.10817430047                            ;
 WJ0701                        233.24   0.10625404661                            ;
 WJ0702                        214.34   0.20994775476                            ;
 WJ0703                        214.69               0                            ;
 WJ0704                        215.54   0.29507900897                            ;
 WJ0705                        217.45  0.077450238798                            ;
 WJ0706                        223.42               0                            ;
 WJ0707                        222.84   0.10433379276                            ;
 WJ0708                        217.02               0                            ;
 WJ0709                        216.23               0                            ;
 WJ0710                        217.07   0.19778614701                            ;
 WJ0711                        240.77   0.20610724705                            ;
 WJ0712                         222.3    0.2291502933                            ;
 WJ0713                        214.92   0.21954902403                            ;
 WJ0714                        214.67               0                            ;
 WJ0715                        225.01               0                            ;
 WJ0716                        222.51               0                            ;
 WJ0717                        225.61  0.014721946218                            ;
 WJ0718                        229.94               0                            ;
 WJ0719                        230.21               0                            ;
 WJ0720                        229.83   0.12865700825                            ;
 WJ0721                         230.9   0.16130132378                            ;
 WJ0722                        230.55   0.12737683901                            ;
 WJ0723                        230.21   0.29571909359                            ;
 WJ0724                         215.7  0.090251931161                            ;
 WJ0725                        214.77               0                            ;
 WJ0726                        235.41   0.22979037792                            ;
 WJ0727                         235.5               0                            ;
 WJ0728                        207.95   0.25923427036                            ;
 WJ0729                        208.56  0.081930831125                            ;
 WJ0730                        207.92               0                            ;
 WJ0731                        210.69  0.084491169597                            ;
 WJ0732                        209.99  0.098573031197                            ;
 WJ0733                        207.61               0                            ;
 WJ0734                        215.86   0.34116510148                            ;
 WJ0735                         243.2               0                            ;
 WJ0736                        242.73   0.12417641592                            ;
 WJ0737                        208.34               0                            ;
 WJ0738                        230.13   0.20866758552                            ;
 WJ0739                         212.3  0.044805923271                            ;
 WJ0740                        210.57               0                            ;
 WJ0741                         227.9               0                            ;
 WJ0742                        239.76   0.12097599283                            ;
 WJ0743                        240.28   0.18882496236                            ;
 WJ0744                         214.3   0.11009455432                            ;
 WJ0745                        209.06   0.22594987021                            ;
 WJ0746                        238.67   0.16002115454                            ;
 WJ0747                        239.15               0                            ;
 WJ0748                        239.43               0                            ;
 WJ0749                         210.4               0                            ;
 WJ0750                        210.84               0                            ;
 WJ0751                        210.04  0.053767107926                            ;
 WJ0752                        207.99  0.041605500181                            ;
 WJ0753                        208.43               0                            ;
 WJ0754                        239.39               0                            ;
 WJ0755                        238.22   0.11009455432                            ;
 WJ0756                        240.28   0.24003173181                            ;
 WJ0757                         208.1   0.04544600789                            ;
 WJ0758                        227.37  0.098573031197                            ;
 WJ0759                        226.55  0.026883553963                            ;
 WJ0760                        231.67               0                            ;
 WJ0761                        231.65   0.24579249337                            ;
 WJ0762                        245.02               0                            ;
 WJ0763                        239.31               0                            ;
 WJ0764                        245.96   0.23747139334                            ;
 WJ0765                        244.64               0                            ;
 WJ0766                        228.14   0.24195198567                            ;
 WJ0767                        228.26               0                            ;
 WJ0768                         243.4   0.30916087057                            ;
 WJ0769                        242.33               0                            ;
 WJ0770                        261.83  0.049286515599                            ;
 WJ0771                        247.54   0.18050386232                            ;
 WJ0772                        208.07               0                            ;
 WJ0773                         207.7   0.27779672428                            ;
 WJ0774                        208.99               0                            ;
 WJ0775                        208.64  0.035844738617                            ;
 WJ0776                        242.04   0.16962242381                            ;
 WJ0777                         207.3               0                            ;
 WJ0778                        207.37               0                            ;
 WJ0779                        226.34   0.13185743134                            ;
 WJ0780                        225.28  0.017922369309                            ;
 WJ0781                        222.76 0.0044805923271                            ;
 WJ0782                        212.21               0                            ;
 WJ0783                        211.57               0                            ;
 WJ0784                        213.41               0                            ;
 WJ0785                        236.72   0.33348408606                            ;
 WJ0786                        235.61               0                            ;
 WJ0787                        237.03   0.13313760058                            ;
 WJ0788                        236.71               0                            ;
 WJ0789                        227.38   0.11841565436                            ;
 WJ0790                        241.07               0                            ;
 WJ0791                        240.85   0.24963300108                            ;
 WJ0792                        241.44   0.38533094013                            ;
 WJ0793                        242.74  0.058247700253                            ;
 WJ0794                        212.58   0.29763934745                            ;
 WJ0795                        212.64               0                            ;
 WJ0796                        248.76   0.13697810829                            ;
 WJ0797                        248.37               0                            ;
 WJ0798                        217.16               0                            ;
 WJ0799                        217.07               0                            ;
 WJ0800                        217.77               0                            ;
 WJ0801                        209.98   0.12865700825                            ;
 WJ0802                        210.12               0                            ;
 WJ0803                        215.28  0.076810154179                            ;
 WJ0804                        213.79               0                            ;
 WJ0805                        215.64               0                            ;
 WJ0806                        238.78               0                            ;
 WJ0807                        237.99   0.15554056221                            ;
 WJ0808                        239.09  0.024963300108                            ;
 WJ0809                           239    0.1728228469                            ;
 WJ0810                        207.68               0                            ;
 WJ0811                         207.4   0.22594987021                            ;
 WJ0812                        232.52               0                            ;
 WJ0813                         227.8               0                            ;
 WJ0814                        248.47    0.1337776852                            ;
 WJ0815                        249.99   0.15105996989                            ;
 WJ0816                        240.48               0                            ;
 WJ0817                        238.13    0.1587409853                            ;
 WJ0818                        242.04               0                            ;
 WJ0819                        231.71   0.11905573898                            ;
 WJ0820                        267.47  0.044805923271                            ;
 WJ0821                        267.17  0.022402961636                            ;
 WJ0822                        211.18  0.098573031197                            ;
 WJ0823                        210.52               0                            ;
 WJ0824                        216.41   0.26179460883                            ;
 WJ0825                        215.29               0                            ;
 WJ0826                        206.93     0.140818616                            ;
 WJ0827                        207.67               0                            ;
 WJ0828                        212.25               0                            ;
 WJ0829                        212.56   0.36036764003                            ;
 WJ0830                        228.83 0.0089611846543                            ;
 WJ0831                        214.21               0                            ;
 WJ0832                        214.54   0.15746081607                            ;
 WJ0833                        209.96               0                            ;
 WJ0834                        210.42   0.15682073145                            ;
 WJ0835                        223.49   0.30916087057                            ;
 WJ0836                        237.68               0                            ;
 WJ0837                        220.68               0                            ;
 WJ0838                        220.87   0.20546716243                            ;
 WJ0839                        217.91  0.026883553963                            ;
 WJ0840                        249.85   0.24579249337                            ;
 WJ0841                        248.21   0.21378826247                            ;
 WJ0842                        230.97   0.20482707781                            ;
 WJ0843                        230.96               0                            ;
 WJ0844                         232.1               0                            ;
 WJ0845                        226.23  0.051206769453                            ;
 WJ0846                        213.71               0                            ;
 WJ0847                        236.41               0                            ;
 WJ0848                        234.47               0                            ;
 WJ0849                        238.29               0                            ;
 WJ0850                        210.17   0.14145870061                            ;
 WJ0851                        210.16               0                            ;
 WJ0852                        218.57   0.28483765508                            ;
 WJ0853                        219.08   0.28291740123                            ;
 WJ0854                         225.4               0                            ;
 WJ0855                        225.69   0.28227731661                            ;
 WJ0856                        225.23   0.53767107926                            ;
 WJ0857                        214.04               0                            ;
 WJ0858                        213.83               0                            ;
 WJ0859                         214.6   0.19202538545                            ;
 WJ0860                         213.9               0                            ;
 WJ0861                        214.04  0.049286515599                            ;
 WJ0862                        219.31               0                            ;
 WJ0863                        218.78   0.10369370814                            ;
 WJ0864                        222.72  0.040325330944                            ;
 WJ0865                        232.45   0.30596044748                            ;
 WJ0866                        231.61               0                            ;
 WJ0867                         236.9   0.20674733167                            ;
 WJ0868                        236.22               0                            ;
 WJ0869                         216.1               0                            ;
 WJ0870                         216.5   0.35972755541                            ;
 WJ0871                        222.76   0.26755537039                            ;
 WJ0872                        209.87   0.16962242381                            ;
 WJ0873                        210.22   0.16642200072                            ;
 WJ0874                        209.07   0.19522580854                            ;
 WJ0875                        210.49               0                            ;
 WJ0876                        219.53   0.20738741628                            ;
 WJ0877                         233.4   0.17346293152                            ;
 WJ0878                         233.3               0                            ;
 WJ0879                        219.88   0.14145870061                            ;
 WJ0880                        225.87   0.22851020868                            ;
 WJ0881                        226.73               0                            ;
 WJ0882                        207.97               0                            ;
 WJ0883                        208.04               0                            ;
 WJ0884                        207.81   0.22530978559                            ;
 WJ0885                        237.28   0.27331613196                            ;
 WJ0886                         237.5   0.27459630119                            ;
 WJ0887                        228.21  0.072969646471                            ;
 WJ0888                        237.97               0                            ;
 WJ0889                        234.34               0                            ;
 WJ0890                        236.73   0.17474310076                            ;
 WJ0891                        225.62               0                            ;
 WJ0892                        231.46               0                            ;
 WJ0893                        229.69               0                            ;
 WJ0894                        232.75  0.099213115815                            ;
 WJ0895                        231.44   0.13889836214                            ;
 WJ0896                         239.5   0.16322157763                            ;
 WJ0897                         226.9   0.22851020868                            ;
 WJ0898                        227.02   0.10753421585                            ;
 WJ0899                        244.97 0.0044805923271                            ;
 WJ0900                        239.25               0                            ;
 WJ0901                        207.77               0                            ;
 WJ0902                        248.24   0.21442834708                            ;
 WJ0903                        248.03               0                            ;
 WJ0904                        218.62     0.105613962                            ;
 WJ0905                        218.83               0                            ;
 WJ0906                         214.9               0                            ;
 WJ0907                        216.26    0.3840507709                            ;
 WJ0908                        214.91               0                            ;
 WJ0909                        230.53   0.11521523127                            ;
 WJ0910                        229.02               0                            ;
 WJ0911                        232.62               0                            ;
 WJ0912                        225.71   0.12545658516                            ;
 WJ0913                         225.7   0.24643257799                            ;
 WJ0914                        225.24   0.29187858588                            ;
 WJ0915                        227.94               0                            ;
 WJ0916                        210.91   0.11009455432                            ;
 WJ0917                        208.81               0                            ;
 WJ0918                        208.72               0                            ;
 WJ0919                        251.24   0.21698868556                            ;
 WJ0920                        208.43               0                            ;
 WJ0921                         209.5               0                            ;
 WJ0922                        208.37  0.056967531016                            ;
 WJ0923                         219.2    0.1196958236                            ;
 WJ0924                        214.41  0.058887784871                            ;
 WJ0925                        208.18    0.1798637777                            ;
 WJ0926                        208.27               0                            ;
 WJ0927                        213.81   0.11009455432                            ;
 WJ0928                        231.62   0.31684188599                            ;
 WJ0929                        230.66   0.31172120905                            ;
 WJ0930                        229.05   0.24835283185                            ;
 WJ0931                        227.71               0                            ;
 WJ0932                        229.08               0                            ;
 WJ0933                        214.42   0.12545658516                            ;
 WJ0934                        209.57               0                            ;
 WJ0935                        209.68               0                            ;
 WJ0936                         209.2   0.13569793905                            ;
 WJ0937                        209.59   0.19650597778                            ;
 WJ0938                        226.06   0.19266547007                            ;
 WJ0939                        225.67   0.17474310076                            ;
 WJ0940                        217.29  0.078730408034                            ;
 WJ0941                        218.52    0.2995596013                            ;
 WJ0942                        209.35               0                            ;
 WJ0943                        233.68   0.15234013912                            ;
 WJ0944                        213.37               0                            ;
 WJ0945                        213.44   0.21762877018                            ;
 WJ0946                        209.08   0.04544600789                            ;
 WJ0947                         218.4   0.20866758552                            ;
 WJ0948                        217.52   0.19266547007                            ;
 WJ0949                        226.32               0                            ;
 WJ0950                         216.1    0.2080275009                            ;
 WJ0951                        240.86    0.2643549473                            ;
 WJ0952                        211.98               0                            ;
 WJ0953                        210.56               0                            ;
 WJ0954                        212.27   0.26883553963                            ;
 WJ0955                        216.24   0.12993717749                            ;
 WJ0956                        224.73  0.071049392616                            ;
 WJ0957                        233.06               0                            ;
 WJ0958                        213.27    0.2009865701                            ;
 WJ0959                        210.64               0                            ;
 WJ0960                        210.39   0.16962242381                            ;
 WJ0961                        208.59  0.096652777343                            ;
 WJ0962                        244.62               0                            ;
 WJ0963                        244.32   0.15682073145                            ;
 WJ0964                        245.35   0.23747139334                            ;
 WJ0965                        244.08   0.21954902403                            ;
 WJ0966                           237               0                            ;
 WJ0967                        222.07   0.11713548512                            ;
 WJ0968                        235.34    0.1446591237                            ;
 WJ0969                        214.75               0                            ;
 WJ0970                        224.59               0                            ;
 WJ0971                        224.28   0.05568736178                            ;
 WJ0972                        214.76   0.44805923271                            ;
 WJ0973                        234.32   0.28227731661                            ;
 WJ0974                        228.69   0.33860476301                            ;
 WJ0975                        228.81   0.19266547007                            ;
 WJ0976                        226.43               0                            ;
 WJ0977                        227.77               0                            ;
 WJ0978                        226.64   0.16386166225                            ;
 WJ0979                        232.95               0                            ;
 WJ0980                        233.89   0.18626462389                            ;
 WJ0981                        231.56               0                            ;
 WJ0982                        231.17   0.24515240876                            ;
 WJ0983                        231.47   0.29507900897                            ;
 WJ0984                        208.78   0.15041988527                            ;
 WJ0985                        215.93    0.1549004776                            ;
 WJ0986                        229.26   0.25987435497                            ;
 WJ0987                        235.17   0.14849963141                            ;
 WJ0988                        236.29   0.11201480818                            ;
 WJ0989                        207.77               0                            ;
 WJ0990                        212.81               0                            ;
 WJ0991                        214.52   0.38917144784                            ;
 WJ0992                        231.59               0                            ;
 WJ0993                        231.81   0.20354690858                            ;
 WJ0994                        230.76   0.23107054716                            ;
 WJ0995                        226.91               0                            ;
 WJ0996                        208.59               0                            ;
 WJ0997                         218.7   0.35204653999                            ;
 WJ0998                         243.5               0                            ;
 WJ0999                        244.42 0.0089611846543                            ;
 WJ1000                        215.67  0.080650661888                            ;
 WJ1001                        228.97   0.15746081607                            ;
 WJ1002                        228.61   0.17154267767                            ;
 WJ1003                        228.78               0                            ;
 WJ1004                        235.85   0.27651655505                            ;
 WJ1005                        236.35   0.20418699319                            ;
 WJ1006                        209.17               0                            ;
 WJ1007                        235.69  0.093452354252                            ;
 WJ1008                        234.96               0                            ;
 WJ1009                        228.32               0                            ;
 WJ1010                        233.26    0.1337776852                            ;
 WJ1011                        213.06               0                            ;
 WJ1012                        208.71   0.33668450915                            ;
 WJ1013                        227.92   0.18818487774                            ;
 WJ1014                        227.62   0.25091317032                            ;
 WJ1015                        223.49               0                            ;
 WJ1016                        225.56 0.0012801692363                            ;
 WJ1017                        211.59   0.11777556974                            ;
 WJ1018                        211.07               0                            ;
 WJ1019                        211.46               0                            ;
 WJ1020                         211.7  0.056967531016                            ;
 WJ1021                        216.59   0.12929709287                            ;
 WJ1022                         215.2               0                            ;
 WJ1023                         208.1               0                            ;
 WJ1024                        211.83   0.13953844676                            ;
 WJ1025                        240.45  0.067848969525                            ;
 WJ1026                        228.93   0.19138530083                            ;
 WJ1027                        211.72  0.094732523488                            ;
 WJ1028                        210.38               0                            ;
 WJ1029                        225.15    0.2080275009                            ;
 WJ1030                        235.63   0.18242411618                            ;
 WJ1031                        220.96               0                            ;
 WJ1032                        261.62  0.035844738617                            ;
 WJ1033                        228.19               0                            ;
 WJ1034                        210.87               0                            ;
 WJ1035                        210.59  0.068489054143                            ;
 WJ1036                        237.64   0.21890893941                            ;
 WJ1037                        234.49   0.30083977054                            ;
 WJ1038                         234.6   0.23747139334                            ;
 WJ1039                        233.34               0                            ;
 WJ1040                        207.68    0.2432321549                            ;
 WJ1041                        239.63   0.24003173181                            ;
 WJ1042                        239.71               0                            ;
 WJ1043                        211.33   0.18946504698                            ;
 WJ1044                        211.23   0.24195198567                            ;
 WJ1045                        244.39   0.21570851632                            ;
 WJ1046                        221.34  0.022402961636                            ;
 WJ1047                        215.23               0                            ;
 WJ1048                        216.17   0.21954902403                            ;
 WJ1049                        238.04   0.18370428541                            ;
 WJ1050                        237.14   0.19778614701                            ;
 WJ1051                         209.6               0                            ;
 WJ1052                           213   0.51974870995                            ;
 WJ1053                        207.02   0.20866758552                            ;
 WJ1054                        207.12   0.27715663966                            ;
 WJ1055                        227.47               0                            ;
 WJ1056                        226.75   0.28675790894                            ;
 WJ1057                        226.22   0.17666335461                            ;
 WJ1058                        223.41   0.14849963141                            ;
 WJ1059                        218.93   0.19714606239                            ;
 WJ1060                         216.7               0                            ;
 WJ1061                        218.88               0                            ;
 WJ1062                        220.37   0.21954902403                            ;
 WJ1063                        218.14    0.1126548928                            ;
 WJ1064                        266.53 0.0044805923271                            ;
 WJ1065                        209.54  0.036484823235                            ;
 WJ1066                        208.36               0                            ;
 WJ1067                        209.45               0                            ;
 WJ1068                        213.86               0                            ;
 WJ1069                        211.24   0.20354690858                            ;
 WJ1070                        210.31               0                            ;
 WJ1071                        212.58  0.092812269634                            ;
 WJ1072                         228.8   0.24707266261                            ;
 WJ1073                        217.39  0.059527869489                            ;
 WJ1074                        232.89               0                            ;
 WJ1075                        232.93               0                            ;
 WJ1076                        232.86               0                            ;
 WJ1077                        215.25  0.078730408034                            ;
 WJ1078                        216.54   0.17602326999                            ;
 WJ1079                        231.89  0.075529984943                            ;
 WJ1080                        222.16   0.21634860094                            ;
 WJ1081                        233.52   0.20930767014                            ;
 WJ1082                        210.23  0.035844738617                            ;
 WJ1083                        230.81               0                            ;
 WJ1084                        210.53   0.09409243887                            ;
 WJ1085                        209.62   0.23299080101                            ;
 WJ1086                        222.34   0.22338953174                            ;
 WJ1087                        222.41               0                            ;
 WJ1088                         223.1   0.25987435497                            ;
 WJ1089                        214.59  0.035844738617                            ;
 WJ1090                        215.47               0                            ;
 WJ1091                        211.58   0.24003173181                            ;
 WJ1092                        242.19    0.3981326325                            ;
 WJ1093                        226.77   0.14977980065                            ;
 WJ1094                        219.17  0.053767107926                            ;
 WJ1095                        235.75   0.29827943206                            ;
 WJ1096                        242.92   0.16450174687                            ;
 WJ1097                        241.79   0.17474310076                            ;
 WJ1098                        215.62   0.12545658516                            ;
 WJ1099                        216.19               0                            ;
 WJ1100                        215.72   0.14145870061                            ;
 WJ1101                        219.37   0.11201480818                            ;
 WJ1102                        218.51               0                            ;
 WJ1103                        220.61  0.058247700253                            ;
 WJ1104                        235.77               0                            ;
 WJ1105                        235.61   0.13825827752                            ;
 WJ1106                        209.73    0.1657819161                            ;
 WJ1107                        209.69   0.16130132378                            ;
 WJ1108                        212.77               0                            ;
 WJ1109                        212.57   0.24515240876                            ;
 WJ1110                        227.28               0                            ;
 WJ1111                        237.05    0.1478595468                            ;
 WJ1112                           222   0.17346293152                            ;
 WJ1113                        230.91               0                            ;
 WJ1114                        229.57               0                            ;
 WJ1115                        212.61               0                            ;
 WJ1116                        211.97               0                            ;
 WJ1117                        212.98               0                            ;
 WJ1118                        212.41   0.15746081607                            ;
 WJ1119                        215.01   0.23043046254                            ;
 WJ1120                        208.58   0.35268662461                            ;
 WJ1121                        208.77               0                            ;
 WJ1122                        214.13               0                            ;
 WJ1123                        209.83               0                            ;
 WJ1124                        210.12               0                            ;
 WJ1125                        211.14   0.12481650054                            ;
 WJ1126                        217.13   0.10497387738                            ;
 WJ1127                        208.19   0.17026250843                            ;
 WJ1128                        214.35   0.26115452421                            ;
 WJ1129                           240   0.18370428541                            ;
 WJ1130                        208.35   0.28867816279                            ;
 WJ1131                        209.94   0.17474310076                            ;
 WJ1132                        215.41   0.31940222446                            ;
 WJ1133                        209.53               0                            ;
 WJ1134                        215.48    0.5075871022                            ;
 WJ1135                        245.97   0.27907689352                            ;
 WJ1136                        263.28 0.0089611846543                            ;
 WJ1137                        260.05               0                            ;
 WJ1138                        234.92   0.35972755541                            ;
 WJ1139                        212.01               0                            ;
 WJ1140                        212.52   0.24195198567                            ;
 WJ1141                        212.23               0                            ;
 WJ1142                        259.22               0                            ;
 WJ1143                        257.39  0.080650661888                            ;
 WJ1144                        260.09  0.040325330944                            ;
 WJ1145                        229.57   0.20354690858                            ;
 WJ1146                        228.56    0.1196958236                            ;
 WJ1147                        207.39  0.081290746507                            ;
 WJ1148                        222.13               0                            ;
 WJ1149                        222.39   0.12161607745                            ;
 WJ1150                        245.27   0.14657937756                            ;
 WJ1151                        246.98   0.17026250843                            ;
 WJ1152                        237.38               0                            ;
 WJ1153                        227.82   0.36868874006                            ;
 WJ1154                        224.77   0.17922369309                            ;
 WJ1155                        238.44               0                            ;
 WJ1156                        239.03   0.28483765508                            ;
 WJ1157                        238.14   0.28419757046                            ;
 WJ1158                        237.74   0.24067181643                            ;
 WJ1159                        207.94   0.29763934745                            ;
 WJ1160                        236.74               0                            ;
 WJ1161                        236.85   0.26947562425                            ;
 WJ1162                         237.1   0.19970640087                            ;
 WJ1163                        214.26   0.15298022374                            ;
 WJ1164                        213.93   0.20418699319                            ;
 WJ1165                        215.26   0.31684188599                            ;
 WJ1166                        225.71   0.13121734672                            ;
 WJ1167                        208.64   0.23107054716                            ;
 WJ1168                        209.05  0.069129138762                            ;
 WJ1169                        214.02   0.72713612623                            ;
 WJ1170                         255.7  0.017922369309                            ;
 WJ1171                        227.65   0.30916087057                            ;
 WJ1172                         215.6   0.16642200072                            ;
 WJ1173                        208.29               0                            ;
 WJ1174                        208.23   0.12865700825                            ;
 WJ1175                        243.45   0.23299080101                            ;
 WJ1176                        218.72   0.17858360847                            ;
 WJ1177                        236.06  0.044805923271                            ;
 WJ1178                         212.8  0.068489054143                            ;
 WJ1179                        224.19               0                            ;
 WJ1180                        211.11   0.19842623163                            ;
 WJ1181                        214.74   0.15554056221                            ;
 WJ1182                        215.19               0                            ;
 WJ1183                        214.66               0                            ;
 WJ1184                        236.13   0.39941280173                            ;
 WJ1185                        236.12               0                            ;
 WJ1186                        217.52   0.15234013912                            ;
 WJ1187                        215.58               0                            ;
 WJ1188                        207.77   0.19842623163                            ;
 WJ1189                        229.69  0.092172185015                            ;
 WJ1190                        232.57  0.098573031197                            ;
 WJ1191                        231.94               0                            ;
 WJ1192                         247.7   0.25987435497                            ;
 WJ1193                        248.53               0                            ;
 WJ1194                        212.51   0.20226673934                            ;
 WJ1195                        218.93   0.12545658516                            ;
 WJ1196                        218.55   0.12097599283                            ;
 WJ1197                           211   0.31236129366                            ;
 WJ1198                         225.6   0.21058783938                            ;
 WJ1199                         222.2               0                            ;
 WJ1200                        210.68               0                            ;
 WJ1201                        210.35   0.28227731661                            ;
 WJ1202                        210.86               0                            ;
 WJ1203                        230.18   0.11393506203                            ;
 WJ1204                        215.06   0.13889836214                            ;
 WJ1205                        207.56   0.25155325494                            ;
 WJ1206                        213.52   0.19074521621                            ;
 WJ1207                        209.55   0.12289624669                            ;
 WJ1208                        228.27   0.35076637075                            ;
 WJ1209                        211.82               0                            ;
 WJ1210                        211.79               0                            ;
 WJ1211                         248.9   0.20482707781                            ;
 WJ1212                        209.51   0.19074521621                            ;
 WJ1213                        233.92    0.1587409853                            ;
 WJ1214                        219.92               0                            ;
 WJ1215                         219.8  0.099853200433                            ;
 WJ1216                        239.52   0.27779672428                            ;
 WJ1217                        230.36   0.16130132378                            ;
 WJ1218                        210.32               0                            ;
 WJ1219                        212.57   0.06272829258                            ;
 WJ1220                        220.44    0.1657819161                            ;
 WJ1221                        218.06   0.14913971603                            ;
 WJ1222                        241.46   0.24387223952                            ;
 WJ1223                        215.31   0.13441776981                            ;
 WJ1224                        211.96  0.013441776981                            ;
 WJ1225                        207.22   0.20418699319                            ;
 WJ1226                        232.11               0                            ;
 WJ1227                        207.73               0                            ;
 WJ1228                        212.52               0                            ;
 WJ1229                        230.16   0.18306420079                            ;
 WJ1230                        207.75               0                            ;
 WJ1231                        215.97   0.15105996989                            ;
 WJ1232                        235.67   0.12353633131                            ;
 WJ1233                        213.16               0                            ;
 WJ1234                        234.15   0.19586589316                            ;
 WJ1235                        214.67   0.23363088563                            ;
 WJ1236                        214.23               0                            ;
 WJ1237                        211.97  0.022402961636                            ;
 WJ1238                        245.85   0.24195198567                            ;
 WJ1239                        211.43    0.2643549473                            ;
 WJ1240                        208.54 0.0044805923271                            ;
 WJ1241                        215.57  0.091532100397                            ;
 WJ1242                        215.65  0.058887784871                            ;
 WJ1243                        210.27  0.017922369309                            ;
 WJ1244                        225.19   0.22594987021                            ;
 WJ1245                        215.68   0.03840507709                            ;
 WJ1246                        215.52   0.26883553963                            ;
 WJ1247                        211.94               0                            ;
 WJ1248                        236.54   0.40005288635                            ;
 WJ1249                        214.28               0                            ;
 WJ1250                        218.27  0.095372608106                            ;
 WJ1251                        210.42   0.13505785443                            ;
 WJ1252                        214.87  0.037764992472                            ;
 WJ1253                        228.66   0.29123850126                            ;
 WJ1254                        228.12   0.30019968592                            ;
 WJ1255                        219.51   0.18434437003                            ;
 WJ1256                        208.85   0.13313760058                            ;
 WJ1257                        221.57 0.0089611846543                            ;
 WJ1258                        222.41               0                            ;
 WJ1259                        221.95   0.31940222446                            ;
 WJ1260                        211.29   0.10625404661                            ;
 WJ1261                        231.31   0.27267604734                            ;
 WJ1262                        208.06   0.10881438509                            ;
 WJ1263                        220.61   0.14017853138                            ;
 WJ1264                        213.12  0.019202538545                            ;
 WJ1265                         234.4               0                            ;
 WJ1266                        219.16   0.19778614701                            ;
 WJ1267                        211.15   0.55623353318                            ;
 WJ1268                        227.93  0.089611846543                            ;
 WJ1269                        229.31  0.058247700253                            ;
 WJ1270                        210.45  0.050566684835                            ;
 WJ1271                        217.55   0.13569793905                            ;
 WJ1272                        210.17               0                            ;
 WJ1273                        218.35    0.0140818616                            ;
 WJ1274                        210.75  0.044805923271                            ;
 WJ1275                        216.69   0.15105996989                            ;
 WJ1276                        209.72               0                            ;
 WJ1277                        220.55   0.03136414629                            ;
 WJ1278                         233.2   0.24451232414                            ;
 WJ1279                        212.75  0.089611846543                            ;
 WJ1280                        213.45    0.1798637777                            ;
 WJ1281                        214.66               0                            ;
 WJ1282                        226.83   0.23491105487                            ;
 WJ1283                        238.48   0.16514183149                            ;
 WJ1284                        238.55               0                            ;
 WJ1285                        211.84   0.27779672428                            ;
 WJ1286                        216.11   0.14145870061                            ;
 WJ1287                        220.46    0.1728228469                            ;
 WJ1288                         212.2 0.0089611846543                            ;
 WJ1289                        213.72   0.25091317032                            ;
 WJ1290                        211.81               0                            ;
 WJ1291                        212.29   0.21122792399                            ;
 WJ1292                        221.12   0.41669508642                            ;
 WJ1293                        235.01    0.1267367544                            ;
 WJ1294                        241.11   0.20162665472                            ;
 WJ1295                        242.84   0.22018910865                            ;
 WJ1296                        230.88   0.14017853138                            ;
 WJ1297                        214.33               0                            ;
 WJ1298                        216.18    0.1657819161                            ;
 WJ1299                        208.89   0.20354690858                            ;
 WJ1300                        234.21  0.099213115815                            ;
 WJ1301                        215.79   0.21442834708                            ;
 WJ1302                        215.61    0.2221093625                            ;
 WJ1303                        231.62   0.14593929294                            ;
 WJ1304                        213.62   0.18050386232                            ;
 WJ1305                        213.34  0.071689477234                            ;
 WJ1306                        247.01  0.017922369309                            ;
 WJ1307                        255.41               0                            ;
 WJ1308                        226.42   0.25539376265                            ;
 WJ1309                        207.22   0.31940222446                            ;
 WJ1310                        229.84    0.3136414629                            ;
 WJ1311                        229.54   0.24195198567                            ;
 WJ1312                        233.15               0                            ;
 WJ1313                        242.02   0.27395621657                            ;
 WJ1314                        214.74   0.19330555468                            ;
 WJ1315                        222.41  0.050566684835                            ;
 WJ1316                        231.58  0.071689477234                            ;
 WJ1317                        212.33  0.096012692724                            ;
 WJ1318                        220.16  0.043525754035                            ;
 WJ1319                        233.02               0                            ;
 WJ1320                        208.86   0.15041988527                            ;
 WJ1321                        222.94   0.34244527072                            ;
 WJ1322                        207.57   0.23555113948                            ;
 WJ1323                        222.49               0                            ;
 WJ1324                        246.48   0.17666335461                            ;
 WJ1325                        215.21   0.20546716243                            ;
 WJ1326                        208.21  0.046086092508                            ;
 WJ1327                        222.92   0.17410301614                            ;
 WJ1328                        223.98   0.17794352385                            ;
 WJ1329                        214.49    0.2221093625                            ;
 WJ1330                        232.27   0.18754479312                            ;
 WJ1331                         227.8   0.09409243887                            ;
 WJ1332                        215.02   0.17922369309                            ;
 WJ1333                        230.04   0.17666335461                            ;
 WJ1334                        208.63  0.077450238798                            ;
 WJ1335                        252.32   0.42693644031                            ;
 WJ1336                        210.35   0.18818487774                            ;
 WJ1337                        232.26   0.21698868556                            ;
 WJ1338                        237.71    0.2573140165                            ;
 WJ1339                        225.31  0.046726177126                            ;
 WJ1340                        226.13               0                            ;
 WJ1341                        238.38    0.2713958781                            ;
 WJ1342                        221.62   0.13953844676                            ;
 WJ1343                        237.45   0.06272829258                            ;
 WJ1344                        251.73  0.064648546434                            ;
 WJ1345                        223.58  0.040325330944                            ;
 WJ1346                        210.87  0.049286515599                            ;
 WJ1347                        216.25   0.23747139334                            ;

[RESERVOIRS]
;ID                                   Head                  Pattern
 WAT_RAW_SOURCE                209.17                            ;

[TANKS]
;ID                              Elevation           Init Level            Min Level            Max Level             Diameter           Min Volume Volume Curve         Overflow            

[PIPES]
;ID                   Node1                Node2                              Length             Diameter            Roughness           Minor Loss               Status
 WP0001               WJ0001               WJ0002                  278.54931369              80             130               0                 Open   ;
 WP0002               WJ0001               WJ0003                  99.342859121              80             130               0                 Open   ;
 WP0003               WJ0001               WJ0004                  702.33171942              80             130               0                 Open   ;
 WP0004               WJ0002               WJ0100                  201.19935341             150             130               0                 Open   ;
 WP0005               WJ0002               WJ1227                  321.77670325             150             130               0                 Open   ;
 WP0006               WJ0005               WJ0006                  179.67787394             125             130               0                 Open   ;
 WP0007               WJ0005               WJ0007                  115.99222135              80             130               0                 Open   ;
 WP0008               WJ0005               WJ0008                  12.482588096             125             130               0                 Open   ;
 WP0009               WJ0006               WJ0990                  93.353461534             250             130               0                 Open   ;
 WP0010               WJ0006               WJ0358                  55.071255483             200             130               0                 Open   ;
 WP0011               WJ0008               WJ0440                  285.47679458             200             130               0                 Open   ;
 WP0012               WJ0008               WJ0151                  123.30697549             200             130               0                 Open   ;
 WP0013               WJ0008               WJ0441                  411.93042652             125             130               0                 Open   ;
 WP0014               WJ0009               WJ0010                  115.44402831             150             130               0                 Open   ;
 WP0015               WJ0009               WJ0011                  67.685811775             200             130               0                 Open   ;
 WP0016               WJ0009               WJ0012                  120.89915656             125             130               0                 Open   ;
 WP0017               WJ0010               WJ1031                  176.71021837             150             130               0                 Open   ;
 WP0018               WJ0010               WJ1058                  135.90341017              80             130               0                 Open   ;
 WP0019               WJ0011               WJ0128                   194.0898436             150             130               0                 Open   ;
 WP0020               WJ0011               WJ0949                   193.2958395              80             130               0                 Open   ;
 WP0021               WJ0012               WJ0279                  188.49109061             125             130               0                 Open   ;
 WP0022               WJ0013               WJ0014                  68.799904119              80             130               0                 Open   ;
 WP0023               WJ0014               WJ0206                  269.13868572              80             130               0                 Open   ;
 WP0024               WJ0014               WJ1152                  347.97272833              80             130               0                 Open   ;
 WP0025               WJ0015               WJ0016                  144.24461001              80             130               0                 Open   ;
 WP0026               WJ0015               WJ0017                  189.90464429              80             130               0                 Open   ;
 WP0027               WJ0016               WJ0021                  79.347472732              80             130               0                 Open   ;
 WP0028               WJ0016               WJ0022                  223.44422789              80             130               0                 Open   ;
 WP0029               WJ0017               WJ0359                   316.3747205              80             130               0                 Open   ;
 WP0030               WJ0018               WJ0019                  191.39740348              80             130               0                 Open   ;
 WP0031               WJ0018               WJ0020                  139.21771153              80             130               0                 Open   ;
 WP0032               WJ0019               WJ0333                  491.63333137              80             130               0                 Open   ;
 WP0033               WJ0019               WJ1259                  54.753011797              80             130               0                 Open   ;
 WP0034               WJ0020               WJ0484                  146.42073778              80             130               0                 Open   ;
 WP0035               WJ0021               WJ0035                  67.850872229              80             130               0                 Open   ;
 WP0036               WJ0022               WJ0889                  284.22693711              80             130               0                 Open   ;
 WP0037               WJ0022               WJ1303                   77.05610933              80             130               0                 Open   ;
 WP0038               WJ0023               WJ0024                  31.882207876              80             130               0                 Open   ;
 WP0039               WJ0023               WJ0025                  146.31748142              80             130               0                 Open   ;
 WP0040               WJ0024               WJ0135                   64.83888025              80             130               0                 Open   ;
 WP0041               WJ0024               WJ1067                  157.49988871              80             130               0                 Open   ;
 WP0042               WJ0025               WJ0578                   46.14969909              80             130               0                 Open   ;
 WP0043               WJ0026               WJ0027                  60.735873531              80             130               0                 Open   ;
 WP0044               WJ0027               WJ0494                   21.27766131              80             130               0                 Open   ;
 WP0045               WJ0027               WJ0495                  179.55124105              80             130               0                 Open   ;
 WP0046               WJ0028               WJ0029                   572.1872838              80             130               0                 Open   ;
 WP0047               WJ0029               WJ0622                  81.099374818              80             130               0                 Open   ;
 WP0048               WJ0029               WJ0789                  69.476887202              80             130               0                 Open   ;
 WP0049               WJ0030               WJ0031                  165.67370473              80             130               0                 Open   ;
 WP0050               WJ0030               WJ0032                  72.157384912              80             130               0                 Open   ;
 WP0051               WJ0031               WJ0170                  163.25578145              80             130               0                 Open   ;
 WP0052               WJ0033               WJ0034                  315.67675182             100             130               0                 Open   ;
 WP0053               WJ0033               WJ0035                  34.376220422             100             130               0                 Open   ;
 WP0054               WJ0033               WJ0036                  302.11905312              80             130               0                 Open   ;
 WP0055               WJ0034               WJ0236                  86.495956824             100             130               0                 Open   ;
 WP0056               WJ0035               WJ0126                   59.94139152              80             130               0                 Open   ;
 WP0057               WJ0037               WJ0038                   236.8933663              80             130               0                 Open   ;
 WP0058               WJ0038               WJ0776                  93.652708919              80             130               0                 Open   ;
 WP0059               WJ0039               WJ0040                  505.19495616              80             130               0                 Open   ;
 WP0060               WJ0039               WJ0041                   177.4875224              80             130               0                 Open   ;
 WP0061               WJ0040               WJ0679                  20.972780925              80             130               0                 Open   ;
 WP0062               WJ0040               WJ1080                  73.234004242              80             130               0                 Open   ;
 WP0063               WJ0041               WJ0845                  72.776344732              80             130               0                 Open   ;
 WP0064               WJ0042               WJ0043                  132.02036992              80             130               0                 Open   ;
 WP0065               WJ0042               WJ0044                  38.486412283              80             130               0                 Open   ;
 WP0066               WJ0042               WJ0045                  72.743484899              80             130               0                 Open   ;
 WP0067               WJ0043               WJ0110                  57.512622861              80             130               0                 Open   ;
 WP0068               WJ0043               WJ0933                  354.02826896              80             130               0                 Open   ;
 WP0069               WJ0044               WJ0699                  42.941191199              80             130               0                 Open   ;
 WP0070               WJ0044               WJ1206                  342.41490715              80             130               0                 Open   ;
 WP0071               WJ0045               WJ0119                  777.14920075              80             130               0                 Open   ;
 WP0072               WJ0045               WJ0120                  224.06230976              80             130               0                 Open   ;
 WP0073               WJ0046               WJ0047                  190.47991654              80             130               0                 Open   ;
 WP0074               WJ0047               WJ0186                   42.30213319              80             130               0                 Open   ;
 WP0075               WJ0047               WJ0685                  48.239198589              80             130               0                 Open   ;
 WP0076               WJ0047               WJ1030                   106.6239908              80             130               0                 Open   ;
 WP0077               WJ0048               WJ0049                  614.78618915              80             130               0                 Open   ;
 WP0078               WJ0049               WJ0566                  170.46279972              80             130               0                 Open   ;
 WP0079               WJ0049               WJ1185                  35.540597983              80             130               0                 Open   ;
 WP0080               WJ0050               WJ0051                   112.5813147              80             130               0                 Open   ;
 WP0081               WJ0051               WJ0917                   235.7770303              80             130               0                 Open   ;
 WP0082               WJ0051               WJ1121                  109.29661443              80             130               0                 Open   ;
 WP0083               WJ0052               WJ0053                  67.481653883             100             130               0                 Open   ;
 WP0084               WJ0052               WJ0054                  82.070977503              80             130               0                 Open   ;
 WP0085               WJ0052               WJ0055                  60.253948884              80             130               0                 Open   ;
 WP0086               WJ0053               WJ0265                  220.36223622             200             130               0                 Open   ;
 WP0087               WJ0053               WJ0718                  41.118464034             150             130               0                 Open   ;
 WP0088               WJ0054               WJ0374                   27.12873164              80             130               0                 Open   ;
 WP0089               WJ0054               WJ0994                  108.25723231              80             130               0                 Open   ;
 WP0090               WJ0055               WJ0994                  114.23451665              80             130               0                 Open   ;
 WP0091               WJ0056               WJ0057                  182.85190301              80             130               0                 Open   ;
 WP0092               WJ0057               WJ0565                  196.98411326              80             130               0                 Open   ;
 WP0093               WJ0058               WJ0059                  24.662304048              80             130               0                 Open   ;
 WP0094               WJ0058               WJ0060                  60.258549902              80             130               0                 Open   ;
 WP0095               WJ0058               WJ0061                  50.925522464              80             130               0                 Open   ;
 WP0096               WJ0059               WJ0917                  49.693542653              80             130               0                 Open   ;
 WP0097               WJ0059               WJ0918                  81.386447408              80             130               0                 Open   ;
 WP0098               WJ0062               WJ0063                  141.47526631             200             130               0                 Open   ;
 WP0099               WJ0062               WJ0064                    638.889748             200             130               0                 Open   ;
 WP0100               WJ0062               WJ0065                  12.494508827              80             130               0                 Open   ;
 WP0101               WJ0062               WJ0066                  13.333066763              80             130               0                 Open   ;
 WP0102               WJ0063               WJ1318                  66.153378477              80             130               0                 Open   ;
 WP0103               WJ0063               WJ0447                  185.44064939             200             130               0                 Open   ;
 WP0104               WJ0064               WJ0265                  394.18724089             200             130               0                 Open   ;
 WP0105               WJ0064               WJ0715                  14.264035187             125             130               0                 Open   ;
 WP0106               WJ0065               WJ0066                  7.7321111423             125             130               0                 Open   ;
 WP0107               WJ0065               WJ0716                  333.96756785             125             130               0                 Open   ;
 WP0108               WJ0066               WJ0445                  324.84472679             125             130               0                 Open   ;
 WP0109               WJ0067               WJ0068                  165.88613404              80             130               0                 Open   ;
 WP0110               WJ0068               WJ1055                  224.23004932              80             130               0                 Open   ;
 WP0111               WJ0068               WJ1056                  32.383241407              80             130               0                 Open   ;
 WP0112               WJ0069               WJ0070                   543.1812288              80             130               0                 Open   ;
 WP0113               WJ0069               WJ0071                  89.387410589              80             130               0                 Open   ;
 WP0114               WJ0069               WJ0072                  114.75936925              80             130               0                 Open   ;
 WP0115               WJ0070               WJ1231                  261.66324947              80             130               0                 Open   ;
 WP0116               WJ0070               WJ1314                  60.604548444              80             130               0                 Open   ;
 WP0117               WJ0071               WJ0390                  199.79866125              80             130               0                 Open   ;
 WP0118               WJ0071               WJ1099                   103.6634988              80             130               0                 Open   ;
 WP0119               WJ0072               WJ1094                  192.30397568              80             130               0                 Open   ;
 WP0120               WJ0073               WJ0074                  339.94551154              80             130               0                 Open   ;
 WP0121               WJ0074               WJ0733                  59.224936569              80             130               0                 Open   ;
 WP0122               WJ0074               WJ0165                  209.29012059              80             130               0                 Open   ;
 WP0123               WJ0075               WJ0076                  411.90146666              80             130               0                 Open   ;
 WP0124               WJ0075               WJ0077                   1073.307777              80             130               0                 Open   ;
 WP0125               WJ0075               WJ0078                  308.81607517              80             130               0                 Open   ;
 WP0126               WJ0076               WJ0256                  118.31560021              80             130               0                 Open   ;
 WP0127               WJ0076               WJ0583                  173.51217016              80             130               0                 Open   ;
 WP0128               WJ0077               WJ0924                  83.276231513              80             130               0                 Open   ;
 WP0129               WJ0077               WJ1090                  503.63034506              80             130               0                 Open   ;
 WP0130               WJ0079               WJ0080                  316.28728992              80             130               0                 Open   ;
 WP0131               WJ0080               WJ0383                  192.77445347             150             130               0                 Open   ;
 WP0132               WJ0080               WJ0948                  35.539716826             150             130               0                 Open   ;
 WP0133               WJ0081               WJ0082                   61.76682017             300             130               0                 Open   ;
 WP0134               WJ0081               WJ0083                  125.17546936             300             130               0                 Open   ;
 WP0135               WJ0081               WJ0084                  5.4184630572              80             130               0                 Open   ;
 WP0136               WJ0082               WJ0236                  267.22912422             100             130               0                 Open   ;
 WP0137               WJ0082               WJ0592                  84.392248573             300             130               0                 Open   ;
 WP0138               WJ0083               WJ0871                  106.07181372              80             130               0                 Open   ;
 WP0139               WJ0083               WJ0377                  98.804135289             300             130               0                 Open   ;
 WP0140               WJ0085               WJ0086                  74.974460355              80             130               0                 Open   ;
 WP0141               WJ0085               WJ0087                  69.531050984              80             130               0                 Open   ;
 WP0142               WJ0085               WJ0088                  58.557685617              80             130               0                 Open   ;
 WP0143               WJ0086               WJ0191                  57.426483813              80             130               0                 Open   ;
 WP0144               WJ0086               WJ1039                  124.78897019              80             130               0                 Open   ;
 WP0145               WJ0087               WJ1004                  72.523090978              80             130               0                 Open   ;
 WP0146               WJ0087               WJ1005                  77.154193459              80             130               0                 Open   ;
 WP0147               WJ0089               WJ0090                  69.056452979              80             130               0                 Open   ;
 WP0148               WJ0090               WJ0198                  3.3032677281              80             130               0                 Open   ;
 WP0149               WJ0090               WJ0199                  165.00861678              80             130               0                 Open   ;
 WP0150               WJ0091               WJ0092                  93.497676317              80             130               0                 Open   ;
 WP0151               WJ0092               WJ0833                  46.884208349             200             130               0                 Open   ;
 WP0152               WJ0092               WJ0159                  78.143413171             200             130               0                 Open   ;
 WP0153               WJ0093               WJ0094                  66.428727582             600             130               0                 Open   ;
 WP0154               WJ0093               WJ0095                  178.24789763             300             130               0                 Open   ;
 WP0155               WJ0093               WJ0096                  66.539333722             600             130               0                 Open   ;
 WP0156               WJ0094               WJ0271                  164.02695456              80             130               0                 Open   ;
 WP0157               WJ0094               WJ1006                  71.995567766             600             130               0                 Open   ;
 WP0158               WJ0095               WJ0777                  318.35171718             250             130               0                 Open   ;
 WP0159               WJ0095               WJ0778                  209.15429479             125             130               0                 Open   ;
 WP0160               WJ0096               WJ0749                  147.43606784              80             130               0                 Open   ;
 WP0161               WJ0096               WJ0440                  345.55002065             600             130               0                 Open   ;
 WP0162               WJ0097               WJ0098                  64.648744437              80             130               0                 Open   ;
 WP0163               WJ0097               WJ0099                   119.4102135              80             130               0                 Open   ;
 WP0164               WJ0098               WJ1175                  242.32659475              80             130               0                 Open   ;
 WP0165               WJ0098               WJ0142                  109.53638335             100             130               0                 Open   ;
 WP0166               WJ0099               WJ1150                  142.98285429              80             130               0                 Open   ;
 WP0167               WJ0099               WJ0963                  10.786892884              80             130               0                 Open   ;
 WP0168               WJ0099               WJ0277                  221.66712627              80             130               0                 Open   ;
 WP0169               WJ0100               WJ0101                  215.63564447             150             130               0                 Open   ;
 WP0170               WJ0100               WJ0102                  235.71252901              80             130               0                 Open   ;
 WP0171               WJ0101               WJ0239                  358.49402788             150             130               0                 Open   ;
 WP0172               WJ0101               WJ0159                  387.23600808             200             130               0                 Open   ;
 WP0173               WJ0103               WJ0104                  155.89222858             100             130               0                 Open   ;
 WP0174               WJ0103               WJ0105                  56.611908678             100             130               0                 Open   ;
 WP0175               WJ0104               WJ0957                  174.18803508             100             130               0                 Open   ;
 WP0176               WJ0105               WJ0657                  133.24497241              80             130               0                 Open   ;
 WP0177               WJ0105               WJ0755                  162.52979614              80             130               0                 Open   ;
 WP0178               WJ0106               WJ0107                   218.4380763              80             130               0                 Open   ;
 WP0179               WJ0106               WJ0108                  36.518627355              80             130               0                 Open   ;
 WP0180               WJ0106               WJ0109                  87.548109503              80             130               0                 Open   ;
 WP0181               WJ0107               WJ1055                  96.749221745              80             130               0                 Open   ;
 WP0182               WJ0107               WJ0767                  29.656456047              80             130               0                 Open   ;
 WP0183               WJ0108               WJ0269                  33.068810326              80             130               0                 Open   ;
 WP0184               WJ0108               WJ0585                  80.126250289              80             130               0                 Open   ;
 WP0185               WJ0109               WJ0344                  59.386114224              80             130               0                 Open   ;
 WP0186               WJ0109               WJ0585                  36.383410399              80             130               0                 Open   ;
 WP0187               WJ0110               WJ0111                  6.8459830382              80             130               0                 Open   ;
 WP0188               WJ0110               WJ0112                  499.89500553              80             130               0                 Open   ;
 WP0189               WJ0111               WJ0744                  122.17749012              80             130               0                 Open   ;
 WP0190               WJ0111               WJ0478                  37.184642351              80             130               0                 Open   ;
 WP0191               WJ0112               WJ0906                  20.840769375              80             130               0                 Open   ;
 WP0192               WJ0112               WJ0908                  31.331972066              80             130               0                 Open   ;
 WP0193               WJ0113               WJ0114                  27.535060261              80             130               0                 Open   ;
 WP0194               WJ0114               WJ0835                  279.11119157              80             130               0                 Open   ;
 WP0195               WJ0114               WJ1179                   184.1641596              80             130               0                 Open   ;
 WP0196               WJ0115               WJ0116                  51.993710531             400             130               0                 Open   ;
 WP0197               WJ0115               WJ0117                  139.07542352             250             130               0                 Open   ;
 WP0198               WJ0115               WJ0118                  298.23004352             300             130               0                 Open   ;
 WP0199               WJ0116               WJ0828                  185.44218041             400             130               0                 Open   ;
 WP0200               WJ0116               WJ1267                  162.57071718              80             130               0                 Open   ;
 WP0201               WJ0117               WJ0172                  201.32642716             250             130               0                 Open   ;
 WP0202               WJ0118               WJ0833                  33.637280802             300             130               0                 Open   ;
 WP0203               WJ0118               WJ0834                  29.267055618              80             130               0                 Open   ;
 WP0204               WJ0121               WJ0122                  80.729200489             100             130               0                 Open   ;
 WP0205               WJ0121               WJ0123                   96.37087337              80             130               0                 Open   ;
 WP0206               WJ0121               WJ0124                  174.09355664              80             130               0                 Open   ;
 WP0207               WJ0122               WJ0992                  73.617560886             100             130               0                 Open   ;
 WP0208               WJ0122               WJ1330                   3.947548304              80             130               0                 Open   ;
 WP0209               WJ0123               WJ0968                  149.26767095              80             130               0                 Open   ;
 WP0210               WJ0123               WJ0324                   70.91801947              80             130               0                 Open   ;
 WP0211               WJ0125               WJ0126                  303.26523857              80             130               0                 Open   ;
 WP0212               WJ0125               WJ0127                  194.64496338              80             130               0                 Open   ;
 WP0213               WJ0126               WJ0327                  127.67884932              80             130               0                 Open   ;
 WP0214               WJ0128               WJ0129                  37.182932059             150             130               0                 Open   ;
 WP0215               WJ0128               WJ0130                  149.30823559              80             130               0                 Open   ;
 WP0216               WJ0129               WJ0262                  36.245713865              80             130               0                 Open   ;
 WP0217               WJ0129               WJ0910                  166.56739018             150             130               0                 Open   ;
 WP0218               WJ0131               WJ0132                  121.20480577             125             130               0                 Open   ;
 WP0219               WJ0131               WJ0133                  32.993143261             125             130               0                 Open   ;
 WP0220               WJ0132               WJ0837                  209.44792534             125             130               0                 Open   ;
 WP0221               WJ0132               WJ1112                  63.080776679              80             130               0                 Open   ;
 WP0222               WJ0133               WJ0706                  52.097099316             125             130               0                 Open   ;
 WP0223               WJ0133               WJ0967                  120.00596253              80             130               0                 Open   ;
 WP0224               WJ0134               WJ0135                  85.083553944              80             130               0                 Open   ;
 WP0225               WJ0135               WJ0578                  81.356777961              80             130               0                 Open   ;
 WP0226               WJ0136               WJ0137                  57.939704843              80             130               0                 Open   ;
 WP0227               WJ0137               WJ0659                  88.823714472              80             130               0                 Open   ;
 WP0228               WJ0137               WJ0727                  110.61413852              80             130               0                 Open   ;
 WP0229               WJ0138               WJ0139                  21.556446055              80             130               0                 Open   ;
 WP0230               WJ0139               WJ0599                  53.106157057              80             130               0                 Open   ;
 WP0231               WJ0139               WJ1043                  136.92552346              80             130               0                 Open   ;
 WP0232               WJ0140               WJ0141                  157.33700694             100             130               0                 Open   ;
 WP0233               WJ0140               WJ0142                  40.213202321             100             130               0                 Open   ;
 WP0234               WJ0141               WJ0816                  87.772943219             125             130               0                 Open   ;
 WP0235               WJ0141               WJ1156                  171.14193525              80             130               0                 Open   ;
 WP0236               WJ0142               WJ0367                  270.68348331              80             130               0                 Open   ;
 WP0237               WJ0143               WJ0144                  110.64126171              80             130               0                 Open   ;
 WP0238               WJ0143               WJ0145                  313.52936918              80             130               0                 Open   ;
 WP0239               WJ0144               WJ0805                   304.6643241              80             130               0                 Open   ;
 WP0240               WJ0144               WJ0556                  1193.9875887              80             130               0                 Open   ;
 WP0241               WJ0145               WJ0209                  191.86186713              80             130               0                 Open   ;
 WP0242               WJ0145               WJ1255                  212.16165531              80             130               0                 Open   ;
 WP0243               WJ0145               WJ0288                  10.671045882              80             130               0                 Open   ;
 WP0244               WJ0146               WJ0147                   169.3056724              80             130               0                 Open   ;
 WP0245               WJ0146               WJ0148                  101.28071241              80             130               0                 Open   ;
 WP0246               WJ0146               WJ0149                  29.912840905              80             130               0                 Open   ;
 WP0247               WJ0147               WJ1037                  107.73297582              80             130               0                 Open   ;
 WP0248               WJ0147               WJ1081                  61.566605899              80             130               0                 Open   ;
 WP0249               WJ0148               WJ0507                  203.90650738              80             130               0                 Open   ;
 WP0250               WJ0149               WJ1037                  89.575526076              80             130               0                 Open   ;
 WP0251               WJ0149               WJ1104                  92.311052473              80             130               0                 Open   ;
 WP0252               WJ0150               WJ0151                  47.483359002             200             130               0                 Open   ;
 WP0253               WJ0150               WJ0152                  151.13584695             200             130               0                 Open   ;
 WP0254               WJ0150               WJ0153                  103.51052295              80             130               0                 Open   ;
 WP0255               WJ0151               WJ0687                  16.603557633              80             130               0                 Open   ;
 WP0256               WJ0152               WJ0335                  152.89392133             200             130               0                 Open   ;
 WP0257               WJ0152               WJ0940                  64.432283821              80             130               0                 Open   ;
 WP0258               WJ0153               WJ1061                  279.35922501              80             130               0                 Open   ;
 WP0259               WJ0153               WJ1126                     39.404227              80             130               0                 Open   ;
 WP0260               WJ0154               WJ0155                  467.72512724              80             130               0                 Open   ;
 WP0261               WJ0155               WJ0634                  66.934649549              80             130               0                 Open   ;
 WP0262               WJ0155               WJ0425                  556.83077872              80             130               0                 Open   ;
 WP0263               WJ0155               WJ0633                  11.076697188              80             130               0                 Open   ;
 WP0264               WJ0156               WJ0157                  120.40536614              80             130               0                 Open   ;
 WP0265               WJ0157               WJ0414                  28.123051704              80             130               0                 Open   ;
 WP0266               WJ0157               WJ0869                  99.343977224              80             130               0                 Open   ;
 WP0267               WJ0158               WJ0159                  228.06529156              80             130               0                 Open   ;
 WP0268               WJ0158               WJ0160                  230.55517268              80             130               0                 Open   ;
 WP0269               WJ0158               WJ0161                  50.865267989              80             130               0                 Open   ;
 WP0270               WJ0162               WJ0163                  79.886636793              80             130               0                 Open   ;
 WP0271               WJ0163               WJ0395                  379.07831986              80             130               0                 Open   ;
 WP0272               WJ0163               WJ1307                  112.94445433              80             130               0                 Open   ;
 WP0273               WJ0164               WJ0165                  149.30370979              80             130               0                 Open   ;
 WP0274               WJ0165               WJ0698                  177.73765682              80             130               0                 Open   ;
 WP0275               WJ0166               WJ0167                  100.86879293              80             130               0                 Open   ;
 WP0276               WJ0167               WJ0577                  139.71795224              80             130               0                 Open   ;
 WP0277               WJ0167               WJ1087                  137.67614121             100             130               0                 Open   ;
 WP0278               WJ0167               WJ1220                  302.91031893             100             130               0                 Open   ;
 WP0279               WJ0168               WJ0169                  182.63021953              80             130               0                 Open   ;
 WP0280               WJ0168               WJ0170                  241.49734328              80             130               0                 Open   ;
 WP0281               WJ0168               WJ0171                  215.25546164              80             130               0                 Open   ;
 WP0282               WJ0169               WJ0216                  39.363779241              80             130               0                 Open   ;
 WP0283               WJ0169               WJ0443                  329.05055519              80             130               0                 Open   ;
 WP0284               WJ0172               WJ0173                  45.573200681             250             130               0                 Open   ;
 WP0285               WJ0173               WJ0453                  51.564900575             250             130               0                 Open   ;
 WP0286               WJ0173               WJ0454                  58.821159284              80             130               0                 Open   ;
 WP0287               WJ0173               WJ0455                  154.03886495              80             130               0                 Open   ;
 WP0288               WJ0174               WJ0175                  129.47446638             125             130               0                 Open   ;
 WP0289               WJ0174               WJ0176                  110.76390718              80             130               0                 Open   ;
 WP0290               WJ0174               WJ0177                  189.49697137             100             130               0                 Open   ;
 WP0291               WJ0175               WJ0592                  148.19966684             125             130               0                 Open   ;
 WP0292               WJ0177               WJ1287                  66.480172477              80             130               0                 Open   ;
 WP0293               WJ0177               WJ1220                   113.1728528             100             130               0                 Open   ;
 WP0294               WJ0178               WJ0179                  53.038850771             100             130               0                 Open   ;
 WP0295               WJ0178               WJ0180                  372.67419391             100             130               0                 Open   ;
 WP0296               WJ0178               WJ0181                  208.95367506              80             130               0                 Open   ;
 WP0297               WJ0179               WJ1122                  170.81401911             150             130               0                 Open   ;
 WP0298               WJ0179               WJ1047                  123.22666117             125             130               0                 Open   ;
 WP0299               WJ0180               WJ0232                   63.04165115              80             130               0                 Open   ;
 WP0300               WJ0180               WJ1077                  171.87275746              80             130               0                 Open   ;
 WP0301               WJ0180               WJ1223                  35.814713991              80             130               0                 Open   ;
 WP0302               WJ0182               WJ0183                  26.653803551              80             130               0                 Open   ;
 WP0303               WJ0182               WJ0184                  1582.2133657              80             130               0                 Open   ;
 WP0304               WJ0182               WJ0185                   757.1350079              80             130               0                 Open   ;
 WP0305               WJ0183               WJ0839                  448.76704493              80             130               0                 Open   ;
 WP0306               WJ0183               WJ1046                  777.50941272              80             130               0                 Open   ;
 WP0307               WJ0184               WJ1029                  102.32623121              80             130               0                 Open   ;
 WP0308               WJ0184               WJ1166                  180.49935214              80             130               0                 Open   ;
 WP0309               WJ0186               WJ0187                  149.34859392              80             130               0                 Open   ;
 WP0310               WJ0186               WJ0188                  14.256097489              80             130               0                 Open   ;
 WP0311               WJ0189               WJ0190                  128.64843535              80             130               0                 Open   ;
 WP0312               WJ0190               WJ0778                  35.025155453              80             130               0                 Open   ;
 WP0313               WJ0190               WJ1334                  556.56117256              80             130               0                 Open   ;
 WP0314               WJ0191               WJ0192                  12.011679277              80             130               0                 Open   ;
 WP0315               WJ0191               WJ0193                  128.06405076              80             130               0                 Open   ;
 WP0316               WJ0192               WJ0973                  156.68766178              80             130               0                 Open   ;
 WP0317               WJ0194               WJ0195                   186.9060035             100             130               0                 Open   ;
 WP0318               WJ0194               WJ0196                  70.196891298              80             130               0                 Open   ;
 WP0319               WJ0194               WJ0197                  72.778990279              80             130               0                 Open   ;
 WP0320               WJ0195               WJ0654                  108.21404954             100             130               0                 Open   ;
 WP0321               WJ0195               WJ0737                  107.34861201              80             130               0                 Open   ;
 WP0322               WJ0196               WJ0197                   11.57479381              80             130               0                 Open   ;
 WP0323               WJ0196               WJ0316                  94.626883431              80             130               0                 Open   ;
 WP0324               WJ0197               WJ0368                  367.41888553              80             130               0                 Open   ;
 WP0325               WJ0198               WJ0643                      41.94261              80             130               0                 Open   ;
 WP0326               WJ0198               WJ1312                  156.50374172              80             130               0                 Open   ;
 WP0327               WJ0199               WJ1036                  207.86302709              80             130               0                 Open   ;
 WP0328               WJ0200               WJ0201                  177.11635668              80             130               0                 Open   ;
 WP0329               WJ0200               WJ0202                  199.20765776              80             130               0                 Open   ;
 WP0330               WJ0201               WJ1238                  168.82937961              80             130               0                 Open   ;
 WP0331               WJ0202               WJ1335                  163.67931884              80             130               0                 Open   ;
 WP0332               WJ0203               WJ0204                  47.027726648              80             130               0                 Open   ;
 WP0333               WJ0204               WJ0582                  95.276320301              80             130               0                 Open   ;
 WP0334               WJ0204               WJ0678                   60.28513215              80             130               0                 Open   ;
 WP0335               WJ0205               WJ0206                   231.9594944              80             130               0                 Open   ;
 WP0336               WJ0205               WJ0207                  263.30469185              80             130               0                 Open   ;
 WP0337               WJ0206               WJ0223                  217.26181527              80             130               0                 Open   ;
 WP0338               WJ0206               WJ0224                  67.906366935              80             130               0                 Open   ;
 WP0339               WJ0208               WJ0209                  569.11845987              80             130               0                 Open   ;
 WP0340               WJ0209               WJ0273                  219.56750373              80             130               0                 Open   ;
 WP0341               WJ0210               WJ0211                   51.17191914              80             130               0                 Open   ;
 WP0342               WJ0211               WJ1238                  145.88297559              80             130               0                 Open   ;
 WP0343               WJ0211               WJ1295                  189.64370024              80             130               0                 Open   ;
 WP0344               WJ0212               WJ0213                  111.87496797             100             130               0                 Open   ;
 WP0345               WJ0212               WJ0214                  64.905179423             100             130               0                 Open   ;
 WP0346               WJ0212               WJ0215                  70.902910299              80             130               0                 Open   ;
 WP0347               WJ0213               WJ0243                  179.86473009              80             130               0                 Open   ;
 WP0348               WJ0213               WJ0336                  119.55156296             100             130               0                 Open   ;
 WP0349               WJ0214               WJ0680                  202.08129375             100             130               0                 Open   ;
 WP0350               WJ0214               WJ0879                  45.790849455              80             130               0                 Open   ;
 WP0351               WJ0216               WJ0217                  76.102160655              80             130               0                 Open   ;
 WP0352               WJ0216               WJ0218                  68.350764059              80             130               0                 Open   ;
 WP0353               WJ0217               WJ1200                  99.009143386              80             130               0                 Open   ;
 WP0354               WJ0219               WJ0220                  21.157136115              80             130               0                 Open   ;
 WP0355               WJ0219               WJ0221                   139.0044681              80             130               0                 Open   ;
 WP0356               WJ0219               WJ0222                  58.504587308              80             130               0                 Open   ;
 WP0357               WJ0220               WJ0915                  45.276138487              80             130               0                 Open   ;
 WP0358               WJ0220               WJ0309                  25.075960512              80             130               0                 Open   ;
 WP0359               WJ0221               WJ0700                  284.42254175              80             130               0                 Open   ;
 WP0360               WJ0221               WJ0738                   117.6561117              80             130               0                 Open   ;
 WP0361               WJ0223               WJ0594                  508.58748058              80             130               0                 Open   ;
 WP0362               WJ0223               WJ0595                  21.393409462              80             130               0                 Open   ;
 WP0363               WJ0224               WJ1135                   262.6196572              80             130               0                 Open   ;
 WP0364               WJ0225               WJ0226                  20.620145599              80             130               0                 Open   ;
 WP0365               WJ0225               WJ0227                  15.591461121              80             130               0                 Open   ;
 WP0366               WJ0225               WJ0228                    12.8900997              80             130               0                 Open   ;
 WP0367               WJ0226               WJ0228                  21.985062737              80             130               0                 Open   ;
 WP0368               WJ0226               WJ0295                  358.67777814              80             130               0                 Open   ;
 WP0369               WJ0227               WJ1132                  125.15689319              80             130               0                 Open   ;
 WP0370               WJ0228               WJ0235                  13.454600313              80             130               0                 Open   ;
 WP0371               WJ0229               WJ0230                   39.62414006             100             130               0                 Open   ;
 WP0372               WJ0229               WJ0231                  75.765713289              80             130               0                 Open   ;
 WP0373               WJ0229               WJ0232                  63.283975559              80             130               0                 Open   ;
 WP0374               WJ0230               WJ1021                  136.83939615              80             130               0                 Open   ;
 WP0375               WJ0230               WJ1048                  51.304270595             100             130               0                 Open   ;
 WP0376               WJ0231               WJ0648                  145.94307964              80             130               0                 Open   ;
 WP0377               WJ0232               WJ0428                  326.22799783              80             130               0                 Open   ;
 WP0378               WJ0233               WJ0234                  1848.0939793              80             130               0                 Open   ;
 WP0379               WJ0234               WJ0275                  336.91352094              80             130               0                 Open   ;
 WP0380               WJ0235               WJ0588                  129.22856217              80             130               0                 Open   ;
 WP0381               WJ0235               WJ0589                  984.59891563              80             130               0                 Open   ;
 WP0382               WJ0236               WJ0237                  107.79244977              80             130               0                 Open   ;
 WP0383               WJ0238               WJ0239                    17.4596991             150             130               0                 Open   ;
 WP0384               WJ0238               WJ0240                  609.40384304              80             130               0                 Open   ;
 WP0385               WJ0238               WJ0241                  509.12856001             150             130               0                 Open   ;
 WP0386               WJ0240               WJ0304                  222.24935394              80             130               0                 Open   ;
 WP0387               WJ0240               WJ0470                  101.28935408              80             130               0                 Open   ;
 WP0388               WJ0241               WJ1123                  179.48736651             150             130               0                 Open   ;
 WP0389               WJ0241               WJ1168                  8.1921966787              80             130               0                 Open   ;
 WP0390               WJ0242               WJ0243                  182.61145264              80             130               0                 Open   ;
 WP0391               WJ0242               WJ0244                  100.02829576              80             130               0                 Open   ;
 WP0392               WJ0242               WJ0245                  296.36175689              80             130               0                 Open   ;
 WP0393               WJ0243               WJ0417                  99.812294398              80             130               0                 Open   ;
 WP0394               WJ0246               WJ0247                  11.448117814              80             130               0                 Open   ;
 WP0395               WJ0246               WJ0248                  111.09388213              80             130               0                 Open   ;
 WP0396               WJ0247               WJ0415                  6.2197684385              80             130               0                 Open   ;
 WP0397               WJ0247               WJ0416                  185.52021477              80             130               0                 Open   ;
 WP0398               WJ0249               WJ0250                  37.101320393              80             130               0                 Open   ;
 WP0399               WJ0249               WJ0251                  552.45044316              80             130               0                 Open   ;
 WP0400               WJ0249               WJ0252                  105.41083655              80             130               0                 Open   ;
 WP0401               WJ0250               WJ0326                   36.24571859              80             130               0                 Open   ;
 WP0402               WJ0250               WJ0725                  119.42640052              80             130               0                 Open   ;
 WP0403               WJ0251               WJ0822                  122.86539402              80             130               0                 Open   ;
 WP0404               WJ0251               WJ0823                  111.26973423              80             130               0                 Open   ;
 WP0405               WJ0253               WJ0254                  344.93726702              80             130               0                 Open   ;
 WP0406               WJ0253               WJ0255                  554.01908872              80             130               0                 Open   ;
 WP0407               WJ0254               WJ0603                  159.10126992              80             130               0                 Open   ;
 WP0408               WJ0254               WJ1344                  136.97826484              80             130               0                 Open   ;
 WP0409               WJ0255               WJ0496                  71.122269648              80             130               0                 Open   ;
 WP0410               WJ0255               WJ1032                  26.924177418              80             130               0                 Open   ;
 WP0411               WJ0256               WJ0257                   192.3130425             100             130               0                 Open   ;
 WP0412               WJ0256               WJ0258                   251.5329235              80             130               0                 Open   ;
 WP0413               WJ0257               WJ0605                  42.606996362              80             130               0                 Open   ;
 WP0414               WJ0257               WJ0944                  124.86266134             100             130               0                 Open   ;
 WP0415               WJ0258               WJ0831                  149.22547399              80             130               0                 Open   ;
 WP0416               WJ0258               WJ0832                  63.194418733              80             130               0                 Open   ;
 WP0417               WJ0259               WJ0260                  280.53881189              80             130               0                 Open   ;
 WP0418               WJ0259               WJ0261                  236.55688577              80             130               0                 Open   ;
 WP0419               WJ0260               WJ0548                  233.72425541             100             130               0                 Open   ;
 WP0420               WJ0260               WJ0970                  201.64183012             100             130               0                 Open   ;
 WP0421               WJ0261               WJ1002                  272.16179637              80             130               0                 Open   ;
 WP0422               WJ0261               WJ1310                  344.83219172              80             130               0                 Open   ;
 WP0423               WJ0263               WJ0264                  161.65949186              80             130               0                 Open   ;
 WP0424               WJ0264               WJ0754                  504.77504624              80             130               0                 Open   ;
 WP0425               WJ0265               WJ0266                   1648.303635              80             130               0                 Open   ;
 WP0426               WJ0266               WJ1232                  107.69858954              80             130               0                 Open   ;
 WP0427               WJ0266               WJ1152                  136.83428531              80             130               0                 Open   ;
 WP0428               WJ0267               WJ0268                   734.5088128              80             130               0                 Open   ;
 WP0429               WJ0268               WJ0508                   336.8656136              80             130               0                 Open   ;
 WP0430               WJ0268               WJ0462                  79.652499775              80             130               0                 Open   ;
 WP0431               WJ0269               WJ0270                  213.76251621              80             130               0                 Open   ;
 WP0432               WJ0271               WJ0272                  467.99438031              80             130               0                 Open   ;
 WP0433               WJ0273               WJ0634                  49.902036618              80             130               0                 Open   ;
 WP0434               WJ0274               WJ0275                  303.30924741              80             130               0                 Open   ;
 WP0435               WJ0275               WJ0480                   215.1572082              80             130               0                 Open   ;
 WP0436               WJ0276               WJ0277                  36.650197599              80             130               0                 Open   ;
 WP0437               WJ0276               WJ0278                   88.74649041              80             130               0                 Open   ;
 WP0438               WJ0277               WJ0497                  74.580297817              80             130               0                 Open   ;
 WP0439               WJ0278               WJ0814                  126.44581957              80             130               0                 Open   ;
 WP0440               WJ0278               WJ1324                  111.66179975              80             130               0                 Open   ;
 WP0441               WJ0279               WJ0280                  200.97614581             125             130               0                 Open   ;
 WP0442               WJ0280               WJ0693                   158.2940772             125             130               0                 Open   ;
 WP0443               WJ0280               WJ0995                  80.803091136              80             130               0                 Open   ;
 WP0444               WJ0281               WJ0282                  170.05671635              80             130               0                 Open   ;
 WP0445               WJ0282               WJ0970                  38.795756955              80             130               0                 Open   ;
 WP0446               WJ0282               WJ0971                  228.02509542              80             130               0                 Open   ;
 WP0447               WJ0283               WJ0284                  225.97274994              80             130               0                 Open   ;
 WP0448               WJ0284               WJ0559                  122.25265167              80             130               0                 Open   ;
 WP0449               WJ0284               WJ0560                  789.22721505              80             130               0                 Open   ;
 WP0450               WJ0285               WJ0286                  77.127282754              80             130               0                 Open   ;
 WP0451               WJ0286               WJ0942                  213.50764704              80             130               0                 Open   ;
 WP0452               WJ0286               WJ1272                  104.24769257              80             130               0                 Open   ;
 WP0453               WJ0287               WJ0288                  191.82522527              80             130               0                 Open   ;
 WP0454               WJ0288               WJ0419                  460.25384817              80             130               0                 Open   ;
 WP0455               WJ0288               WJ0298                  248.96360214              80             130               0                 Open   ;
 WP0456               WJ0289               WJ0290                  554.92723299              80             130               0                 Open   ;
 WP0457               WJ0290               WJ0682                  76.086386024              80             130               0                 Open   ;
 WP0458               WJ0291               WJ0292                  61.573912309              80             130               0                 Open   ;
 WP0459               WJ0292               WJ0408                  16.889532445              80             130               0                 Open   ;
 WP0460               WJ0292               WJ0730                  78.362633517              80             130               0                 Open   ;
 WP0461               WJ0293               WJ0294                  209.37550309              80             130               0                 Open   ;
 WP0462               WJ0293               WJ0295                  158.59768585              80             130               0                 Open   ;
 WP0463               WJ0293               WJ0296                  621.24497675              80             130               0                 Open   ;
 WP0464               WJ0294               WJ0641                  52.293831172              80             130               0                 Open   ;
 WP0465               WJ0295               WJ1252                  153.81739737              80             130               0                 Open   ;
 WP0466               WJ0297               WJ0298                  479.40893439              80             130               0                 Open   ;
 WP0467               WJ0298               WJ0805                  479.83264488              80             130               0                 Open   ;
 WP0468               WJ0299               WJ0300                  150.45081067             100             130               0                 Open   ;
 WP0469               WJ0299               WJ0301                   105.7715481              80             130               0                 Open   ;
 WP0470               WJ0299               WJ0302                  166.85043655              80             130               0                 Open   ;
 WP0471               WJ0299               WJ0303                  15.419126101              80             130               0                 Open   ;
 WP0472               WJ0300               WJ0998                  901.08754809              80             130               0                 Open   ;
 WP0473               WJ0300               WJ1113                  1015.9431878             100             130               0                 Open   ;
 WP0474               WJ0301               WJ0617                  185.19639604              80             130               0                 Open   ;
 WP0475               WJ0301               WJ0618                    135.554151              80             130               0                 Open   ;
 WP0476               WJ0302               WJ0677                  76.539746886              80             130               0                 Open   ;
 WP0477               WJ0302               WJ0582                  279.39727149              80             130               0                 Open   ;
 WP0478               WJ0303               WJ1216                  210.77825029              80             130               0                 Open   ;
 WP0479               WJ0304               WJ0305                  204.76466562              80             130               0                 Open   ;
 WP0480               WJ0304               WJ0306                   461.3493113              80             130               0                 Open   ;
 WP0481               WJ0306               WJ0393                    27.9129412              80             130               0                 Open   ;
 WP0482               WJ0306               WJ0394                  355.47976115              80             130               0                 Open   ;
 WP0483               WJ0307               WJ0308                  55.611349412              80             130               0                 Open   ;
 WP0484               WJ0307               WJ0309                  114.66472355              80             130               0                 Open   ;
 WP0485               WJ0307               WJ0310                   37.65485892              80             130               0                 Open   ;
 WP0486               WJ0308               WJ0864                  794.24311871              80             130               0                 Open   ;
 WP0487               WJ0308               WJ1268                  134.16803115              80             130               0                 Open   ;
 WP0488               WJ0309               WJ0513                  249.17277683              80             130               0                 Open   ;
 WP0489               WJ0310               WJ0915                  9.9573958292              80             130               0                 Open   ;
 WP0490               WJ0311               WJ0312                   60.45985384              80             130               0                 Open   ;
 WP0491               WJ0311               WJ0313                  26.687010769              80             130               0                 Open   ;
 WP0492               WJ0311               WJ0314                  133.79722517              80             130               0                 Open   ;
 WP0493               WJ0312               WJ0368                   28.39947138              80             130               0                 Open   ;
 WP0494               WJ0312               WJ1018                  12.201670639              80             130               0                 Open   ;
 WP0495               WJ0313               WJ1210                  78.345224497              80             130               0                 Open   ;
 WP0496               WJ0313               WJ1019                   10.58119504              80             130               0                 Open   ;
 WP0497               WJ0315               WJ0316                  160.96118647              80             130               0                 Open   ;
 WP0498               WJ0316               WJ1018                  305.22606436              80             130               0                 Open   ;
 WP0499               WJ0317               WJ0318                  20.759266264              80             130               0                 Open   ;
 WP0500               WJ0318               WJ0460                  105.80191192              80             130               0                 Open   ;
 WP0501               WJ0318               WJ0461                  114.18988161              80             130               0                 Open   ;
 WP0502               WJ0318               WJ0462                  440.59889044              80             130               0                 Open   ;
 WP0503               WJ0319               WJ0320                  106.82977551             150             130               0                 Open   ;
 WP0504               WJ0319               WJ0321                  95.029134115             125             130               0                 Open   ;
 WP0505               WJ0319               WJ0322                  77.510814446              80             130               0                 Open   ;
 WP0506               WJ0320               WJ0650                  267.42316657             150             130               0                 Open   ;
 WP0507               WJ0320               WJ0862                  54.255068546              80             130               0                 Open   ;
 WP0508               WJ0321               WJ0333                  22.313081704             125             130               0                 Open   ;
 WP0509               WJ0321               WJ0334                  114.66608482              80             130               0                 Open   ;
 WP0510               WJ0322               WJ0997                  28.650201072              80             130               0                 Open   ;
 WP0511               WJ0322               WJ0905                  99.090563715              80             130               0                 Open   ;
 WP0512               WJ0323               WJ0324                  131.13776414              80             130               0                 Open   ;
 WP0513               WJ0323               WJ0325                  124.05930079              80             130               0                 Open   ;
 WP0514               WJ0325               WJ0615                  121.43011884              80             130               0                 Open   ;
 WP0515               WJ0325               WJ0616                  134.57803669              80             130               0                 Open   ;
 WP0516               WJ0327               WJ0328                  162.28719713              80             130               0                 Open   ;
 WP0517               WJ0328               WJ0606                  176.61079078              80             130               0                 Open   ;
 WP0518               WJ0328               WJ1311                  37.328539898              80             130               0                 Open   ;
 WP0519               WJ0329               WJ0330                  327.19044261              80             130               0                 Open   ;
 WP0520               WJ0330               WJ0481                  185.34377634              80             130               0                 Open   ;
 WP0521               WJ0330               WJ0482                  73.090438981              80             130               0                 Open   ;
 WP0522               WJ0331               WJ0332                  133.74198666              80             130               0                 Open   ;
 WP0523               WJ0332               WJ0847                  120.63628525             125             130               0                 Open   ;
 WP0524               WJ0332               WJ0896                  220.47807685              80             130               0                 Open   ;
 WP0525               WJ0332               WJ0817                     39.599167             125             130               0                 Open   ;
 WP0526               WJ0333               WJ1214                  80.434735768             125             130               0                 Open   ;
 WP0527               WJ0335               WJ0336                  65.563713502             200             130               0                 Open   ;
 WP0528               WJ0335               WJ0337                  170.07009583              80             130               0                 Open   ;
 WP0529               WJ0336               WJ1031                  243.87338202             150             130               0                 Open   ;
 WP0530               WJ0338               WJ0339                  107.97286572              80             130               0                 Open   ;
 WP0531               WJ0338               WJ0340                    78.8916838              80             130               0                 Open   ;
 WP0532               WJ0338               WJ0341                  67.184856595              80             130               0                 Open   ;
 WP0533               WJ0339               WJ1009                  462.13794897              80             130               0                 Open   ;
 WP0534               WJ0339               WJ1010                   130.7028739              80             130               0                 Open   ;
 WP0535               WJ0340               WJ0987                  208.40571094              80             130               0                 Open   ;
 WP0536               WJ0340               WJ0988                   234.6184609              80             130               0                 Open   ;
 WP0537               WJ0342               WJ0343                   209.8964436              80             130               0                 Open   ;
 WP0538               WJ0342               WJ0344                  166.03430084              80             130               0                 Open   ;
 WP0539               WJ0343               WJ0372                     133.56173              80             130               0                 Open   ;
 WP0540               WJ0343               WJ0975                    26.0277526              80             130               0                 Open   ;
 WP0541               WJ0345               WJ0346                  119.84782746              80             130               0                 Open   ;
 WP0542               WJ0345               WJ0347                  91.255156528              80             130               0                 Open   ;
 WP0543               WJ0345               WJ0348                  65.663878377              80             130               0                 Open   ;
 WP0544               WJ0346               WJ0411                  46.664618735              80             130               0                 Open   ;
 WP0545               WJ0346               WJ0935                  91.101775371              80             130               0                 Open   ;
 WP0546               WJ0347               WJ0351                  36.981740053              80             130               0                 Open   ;
 WP0547               WJ0347               WJ1017                  233.49039356              80             130               0                 Open   ;
 WP0548               WJ0348               WJ0960                  206.07199749              80             130               0                 Open   ;
 WP0549               WJ0349               WJ0350                  173.73675096              80             130               0                 Open   ;
 WP0550               WJ0350               WJ0500                  161.07572915              80             130               0                 Open   ;
 WP0551               WJ0350               WJ0578                  6.9424269249              80             130               0                 Open   ;
 WP0552               WJ0351               WJ0352                  121.15397441              80             130               0                 Open   ;
 WP0553               WJ0352               WJ1125                  29.961442212              80             130               0                 Open   ;
 WP0554               WJ0352               WJ1260                  138.03525298              80             130               0                 Open   ;
 WP0555               WJ0353               WJ0354                  52.741729757              80             130               0                 Open   ;
 WP0556               WJ0354               WJ0523                  169.58453634              80             130               0                 Open   ;
 WP0557               WJ0354               WJ0878                  91.934634118              80             130               0                 Open   ;
 WP0558               WJ0355               WJ0356                  4.3513197137             300             130               0                 Open   ;
 WP0559               WJ0355               WJ0357                  89.406902779             300             130               0                 Open   ;
 WP0560               WJ0355               WJ0358                  39.545263029             200             130               0                 Open   ;
 WP0561               WJ0356               WJ0990                   145.4667005             300             130               0                 Open   ;
 WP0562               WJ0356               WJ0991                  86.585017029              80             130               0                 Open   ;
 WP0563               WJ0357               WJ0593                  72.618755078             300             130               0                 Open   ;
 WP0564               WJ0360               WJ0361                  256.39623994              80             130               0                 Open   ;
 WP0565               WJ0361               WJ0765                  156.13422567              80             130               0                 Open   ;
 WP0566               WJ0362               WJ0363                  32.483114332              80             130               0                 Open   ;
 WP0567               WJ0362               WJ0364                  36.923367786              80             130               0                 Open   ;
 WP0568               WJ0362               WJ0365                   49.51398986              80             130               0                 Open   ;
 WP0569               WJ0363               WJ0656                  117.68036949              80             130               0                 Open   ;
 WP0570               WJ0363               WJ0742                  84.412384433              80             130               0                 Open   ;
 WP0571               WJ0364               WJ0711                  101.44290082              80             130               0                 Open   ;
 WP0572               WJ0364               WJ0735                  272.48101826              80             130               0                 Open   ;
 WP0573               WJ0366               WJ0367                  101.61557182              80             130               0                 Open   ;
 WP0574               WJ0368               WJ0516                  247.90282934              80             130               0                 Open   ;
 WP0575               WJ0369               WJ0370                  129.90555278              80             130               0                 Open   ;
 WP0576               WJ0369               WJ0371                  509.91796224              80             130               0                 Open   ;
 WP0577               WJ0370               WJ0819                  11.408731708              80             130               0                 Open   ;
 WP0578               WJ0370               WJ0627                   237.3518319              80             130               0                 Open   ;
 WP0579               WJ0371               WJ0836                  135.61611875              80             130               0                 Open   ;
 WP0580               WJ0372               WJ0373                  120.91686073              80             130               0                 Open   ;
 WP0581               WJ0373               WJ0531                   102.8215573              80             130               0                 Open   ;
 WP0582               WJ0373               WJ0532                  38.394009663              80             130               0                 Open   ;
 WP0583               WJ0374               WJ0375                  20.547574108              80             130               0                 Open   ;
 WP0584               WJ0375               WJ0760                  31.495190744              80             130               0                 Open   ;
 WP0585               WJ0375               WJ0761                   110.1925078              80             130               0                 Open   ;
 WP0586               WJ0376               WJ0377                  176.87155195             200             130               0                 Open   ;
 WP0587               WJ0376               WJ0378                  139.55565272             200             130               0                 Open   ;
 WP0588               WJ0376               WJ0379                  340.88020799              80             130               0                 Open   ;
 WP0589               WJ0377               WJ0712                  33.664869227              80             130               0                 Open   ;
 WP0590               WJ0377               WJ0515                  182.72088544             200             130               0                 Open   ;
 WP0591               WJ0378               WJ0387                  69.518701843             200             130               0                 Open   ;
 WP0592               WJ0380               WJ0381                  185.74091285              80             130               0                 Open   ;
 WP0593               WJ0381               WJ0854                   45.46205397              80             130               0                 Open   ;
 WP0594               WJ0381               WJ0938                  181.32505914              80             130               0                 Open   ;
 WP0595               WJ0382               WJ0383                  93.015270595             250             130               0                 Open   ;
 WP0596               WJ0382               WJ0384                  43.581478996             250             130               0                 Open   ;
 WP0597               WJ0382               WJ0385                  154.69331977              80             130               0                 Open   ;
 WP0598               WJ0383               WJ1241                  49.391220214             250             130               0                 Open   ;
 WP0599               WJ0384               WJ0714                  77.884683508             200             130               0                 Open   ;
 WP0600               WJ0384               WJ0682                   398.2919894             250             130               0                 Open   ;
 WP0601               WJ0386               WJ0387                  174.77787355              80             130               0                 Open   ;
 WP0602               WJ0386               WJ0388                  289.59087818              80             130               0                 Open   ;
 WP0603               WJ0387               WJ0741                   142.3705915             200             130               0                 Open   ;
 WP0604               WJ0389               WJ0390                  85.149495469              80             130               0                 Open   ;
 WP0605               WJ0389               WJ0391                  81.260221518              80             130               0                 Open   ;
 WP0606               WJ0389               WJ0392                  135.33169937              80             130               0                 Open   ;
 WP0607               WJ0390               WJ1221                  100.81590244              80             130               0                 Open   ;
 WP0608               WJ0391               WJ0692                   61.78427859              80             130               0                 Open   ;
 WP0609               WJ0391               WJ0955                  71.128150168              80             130               0                 Open   ;
 WP0610               WJ0395               WJ0396                  152.00847798              80             130               0                 Open   ;
 WP0611               WJ0396               WJ1193                  87.800662945              80             130               0                 Open   ;
 WP0612               WJ0397               WJ0398                  205.10923047              80             130               0                 Open   ;
 WP0613               WJ0397               WJ0399                  32.393990135              80             130               0                 Open   ;
 WP0614               WJ0397               WJ0400                  10.225238407              80             130               0                 Open   ;
 WP0615               WJ0398               WJ0551                  13.027676624              80             130               0                 Open   ;
 WP0616               WJ0398               WJ0552                  12.348588655              80             130               0                 Open   ;
 WP0617               WJ0399               WJ1173                  34.466467144              80             130               0                 Open   ;
 WP0618               WJ0399               WJ1174                  57.904183337              80             130               0                 Open   ;
 WP0619               WJ0400               WJ0552                  202.75472111              80             130               0                 Open   ;
 WP0620               WJ0400               WJ0942                  200.51725238              80             130               0                 Open   ;
 WP0621               WJ0401               WJ0402                  43.035173742              80             130               0                 Open   ;
 WP0622               WJ0402               WJ0426                  149.72579986              80             130               0                 Open   ;
 WP0623               WJ0402               WJ0429                  326.19601092              80             130               0                 Open   ;
 WP0624               WJ0403               WJ0404                  16.381406837              80             130               0                 Open   ;
 WP0625               WJ0404               WJ0647                  208.52071455              80             130               0                 Open   ;
 WP0626               WJ0404               WJ1301                  221.72150466              80             130               0                 Open   ;
 WP0627               WJ0405               WJ0406                  11.085213677              80             130               0                 Open   ;
 WP0628               WJ0406               WJ1272                  57.457065915              80             130               0                 Open   ;
 WP0629               WJ0406               WJ1317                  211.24124335              80             130               0                 Open   ;
 WP0630               WJ0407               WJ0408                  230.07908099              80             130               0                 Open   ;
 WP0631               WJ0407               WJ0409                  316.80269337              80             130               0                 Open   ;
 WP0632               WJ0407               WJ0410                  126.18364301              80             130               0                 Open   ;
 WP0633               WJ0408               WJ0411                  549.17216081              80             130               0                 Open   ;
 WP0634               WJ0411               WJ0525                  750.52218593              80             130               0                 Open   ;
 WP0635               WJ0412               WJ0413                  17.293146821              80             130               0                 Open   ;
 WP0636               WJ0413               WJ0493                  150.48514041              80             130               0                 Open   ;
 WP0637               WJ0413               WJ0852                  154.53605435              80             130               0                 Open   ;
 WP0638               WJ0413               WJ0853                  216.43919931              80             130               0                 Open   ;
 WP0639               WJ0415               WJ0985                  54.570697874              80             130               0                 Open   ;
 WP0640               WJ0415               WJ1021                  230.78393589              80             130               0                 Open   ;
 WP0641               WJ0416               WJ0950                   262.1908825              80             130               0                 Open   ;
 WP0642               WJ0418               WJ0419                  351.30719436              80             130               0                 Open   ;
 WP0643               WJ0419               WJ0633                  70.545064433              80             130               0                 Open   ;
 WP0644               WJ0419               WJ0634                  11.028097762              80             130               0                 Open   ;
 WP0645               WJ0420               WJ0421                  13.447935778              80             130               0                 Open   ;
 WP0646               WJ0420               WJ0422                  34.158470605              80             130               0                 Open   ;
 WP0647               WJ0420               WJ0423                  94.615076219              80             130               0                 Open   ;
 WP0648               WJ0421               WJ0553                  59.582725309              80             130               0                 Open   ;
 WP0649               WJ0421               WJ0554                  353.93390753              80             130               0                 Open   ;
 WP0650               WJ0423               WJ0517                  124.73082196              80             130               0                 Open   ;
 WP0651               WJ0423               WJ0518                  69.551052958              80             130               0                 Open   ;
 WP0652               WJ0424               WJ0425                  1169.4951634              80             130               0                 Open   ;
 WP0653               WJ0425               WJ0891                  12.209145103              80             130               0                 Open   ;
 WP0654               WJ0426               WJ0427                  13.089078881              80             130               0                 Open   ;
 WP0655               WJ0427               WJ0456                  172.58138962              80             130               0                 Open   ;
 WP0656               WJ0429               WJ0721                  127.14554199              80             130               0                 Open   ;
 WP0657               WJ0430               WJ0431                  128.73955876              80             130               0                 Open   ;
 WP0658               WJ0431               WJ0888                  523.36532343              80             130               0                 Open   ;
 WP0659               WJ0431               WJ0603                  805.12938996              80             130               0                 Open   ;
 WP0660               WJ0432               WJ0433                  117.14239046             125             130               0                 Open   ;
 WP0661               WJ0432               WJ0434                  11.696136594             125             130               0                 Open   ;
 WP0662               WJ0432               WJ0435                  166.80378502              80             130               0                 Open   ;
 WP0663               WJ0433               WJ0437                  64.380639268             125             130               0                 Open   ;
 WP0664               WJ0434               WJ0579                  84.480340314             100             130               0                 Open   ;
 WP0665               WJ0434               WJ0580                  165.78889803              80             130               0                 Open   ;
 WP0666               WJ0435               WJ1230                  143.44260211              80             130               0                 Open   ;
 WP0667               WJ0435               WJ0580                  10.714521039              80             130               0                 Open   ;
 WP0668               WJ0436               WJ0437                  394.36449774              80             130               0                 Open   ;
 WP0669               WJ0436               WJ0438                  64.990490792              80             130               0                 Open   ;
 WP0670               WJ0436               WJ0439                  280.67621862              80             130               0                 Open   ;
 WP0671               WJ0437               WJ0901                  56.198103867             125             130               0                 Open   ;
 WP0672               WJ0440               WJ0828                  84.809652873             400             130               0                 Open   ;
 WP0673               WJ0440               WJ0990                  8.8703764666             350             130               0                 Open   ;
 WP0674               WJ0441               WJ0570                  217.47057882             125             130               0                 Open   ;
 WP0675               WJ0442               WJ0443                  122.65120438              80             130               0                 Open   ;
 WP0676               WJ0442               WJ0444                  170.82610853              80             130               0                 Open   ;
 WP0677               WJ0443               WJ1237                  119.77545222              80             130               0                 Open   ;
 WP0678               WJ0444               WJ0519                  165.22685228              80             130               0                 Open   ;
 WP0679               WJ0445               WJ0446                  636.37295937             125             130               0                 Open   ;
 WP0680               WJ0445               WJ0447                  11.054226884              80             130               0                 Open   ;
 WP0681               WJ0446               WJ0448                  389.13030184              80             130               0                 Open   ;
 WP0682               WJ0446               WJ0798                  11.857648954              80             130               0                 Open   ;
 WP0683               WJ0446               WJ0799                  67.935093344             125             130               0                 Open   ;
 WP0684               WJ0447               WJ0800                  345.41193126             200             130               0                 Open   ;
 WP0685               WJ0448               WJ0449                  245.54539889              80             130               0                 Open   ;
 WP0686               WJ0450               WJ0451                  202.74342423              80             130               0                 Open   ;
 WP0687               WJ0450               WJ0452                  117.25611375              80             130               0                 Open   ;
 WP0688               WJ0451               WJ0844                  162.50402947              80             130               0                 Open   ;
 WP0689               WJ0452               WJ0785                  191.34447566              80             130               0                 Open   ;
 WP0690               WJ0452               WJ0786                  72.380424168              80             130               0                 Open   ;
 WP0691               WJ0453               WJ0734                  142.83024325              80             130               0                 Open   ;
 WP0692               WJ0453               WJ0972                  90.451983825             250             130               0                 Open   ;
 WP0693               WJ0454               WJ0869                  88.816963884              80             130               0                 Open   ;
 WP0694               WJ0455               WJ1165                   92.00094263              80             130               0                 Open   ;
 WP0695               WJ0455               WJ1169                   103.5277739              80             130               0                 Open   ;
 WP0696               WJ0456               WJ1248                  141.27384879              80             130               0                 Open   ;
 WP0697               WJ0456               WJ1185                  36.698521952              80             130               0                 Open   ;
 WP0698               WJ0457               WJ0458                  170.78589863              80             130               0                 Open   ;
 WP0699               WJ0457               WJ0459                   178.6233655              80             130               0                 Open   ;
 WP0700               WJ0458               WJ0758                    68.6418744              80             130               0                 Open   ;
 WP0701               WJ0459               WJ0830                   123.7284961              80             130               0                 Open   ;
 WP0702               WJ0460               WJ0563                  204.73569729              80             130               0                 Open   ;
 WP0703               WJ0460               WJ0508                  184.54893895              80             130               0                 Open   ;
 WP0704               WJ0461               WJ0779                  173.12011498              80             130               0                 Open   ;
 WP0705               WJ0461               WJ0956                  215.16042389              80             130               0                 Open   ;
 WP0706               WJ0462               WJ0887                  68.221559805              80             130               0                 Open   ;
 WP0707               WJ0463               WJ0464                   93.84573461              80             130               0                 Open   ;
 WP0708               WJ0463               WJ0465                   188.5213665              80             130               0                 Open   ;
 WP0709               WJ0463               WJ0466                  56.586969645              80             130               0                 Open   ;
 WP0710               WJ0464               WJ0698                  26.094873783              80             130               0                 Open   ;
 WP0711               WJ0464               WJ1127                   178.8376563              80             130               0                 Open   ;
 WP0712               WJ0467               WJ0468                  85.398944771              80             130               0                 Open   ;
 WP0713               WJ0467               WJ0469                  331.47769089              80             130               0                 Open   ;
 WP0714               WJ0468               WJ0868                  116.36128017              80             130               0                 Open   ;
 WP0715               WJ0468               WJ1049                  125.27031818              80             130               0                 Open   ;
 WP0716               WJ0468               WJ1050                  74.699546186              80             130               0                 Open   ;
 WP0717               WJ0470               WJ0471                  124.34479537              80             130               0                 Open   ;
 WP0718               WJ0470               WJ0472                  39.518445857              80             130               0                 Open   ;
 WP0719               WJ0471               WJ0961                   286.1361779              80             130               0                 Open   ;
 WP0720               WJ0473               WJ0474                  31.452159327              80             130               0                 Open   ;
 WP0721               WJ0474               WJ0824                  113.32933148              80             130               0                 Open   ;
 WP0722               WJ0474               WJ1266                  312.95917436              80             130               0                 Open   ;
 WP0723               WJ0475               WJ0476                  142.87396951              80             130               0                 Open   ;
 WP0724               WJ0476               WJ1312                  131.27443348              80             130               0                 Open   ;
 WP0725               WJ0477               WJ0478                  71.233276451              80             130               0                 Open   ;
 WP0726               WJ0477               WJ0479                  416.73865727              80             130               0                 Open   ;
 WP0727               WJ0477               WJ0480                  204.66131292              80             130               0                 Open   ;
 WP0728               WJ0478               WJ1122                  163.67011839              80             130               0                 Open   ;
 WP0729               WJ0479               WJ1073                  555.94598079              80             130               0                 Open   ;
 WP0730               WJ0480               WJ1000                  142.57043922              80             130               0                 Open   ;
 WP0731               WJ0481               WJ0529                  80.583911552              80             130               0                 Open   ;
 WP0732               WJ0482               WJ0733                  87.237505572              80             130               0                 Open   ;
 WP0733               WJ0482               WJ1159                  84.359582016              80             130               0                 Open   ;
 WP0734               WJ0483               WJ0484                  176.95000769              80             130               0                 Open   ;
 WP0735               WJ0485               WJ0486                  21.710325432              80             130               0                 Open   ;
 WP0736               WJ0486               WJ1261                  200.68288118              80             130               0                 Open   ;
 WP0737               WJ0486               WJ1114                  150.18133538              80             130               0                 Open   ;
 WP0738               WJ0487               WJ0488                   80.62456796              80             130               0                 Open   ;
 WP0739               WJ0488               WJ0509                  69.231319906              80             130               0                 Open   ;
 WP0740               WJ0488               WJ0510                  165.91580174              80             130               0                 Open   ;
 WP0741               WJ0488               WJ0511                  60.620035968              80             130               0                 Open   ;
 WP0742               WJ0489               WJ0490                  142.97590417              80             130               0                 Open   ;
 WP0743               WJ0490               WJ0590                  96.466111553              80             130               0                 Open   ;
 WP0744               WJ0490               WJ0591                   90.57977629              80             130               0                 Open   ;
 WP0745               WJ0491               WJ0492                  97.326210321              80             130               0                 Open   ;
 WP0746               WJ0491               WJ0493                  31.721368351              80             130               0                 Open   ;
 WP0747               WJ0492               WJ0671                  124.76786576              80             130               0                 Open   ;
 WP0748               WJ0492               WJ0708                  70.837579556             100             130               0                 Open   ;
 WP0749               WJ0493               WJ1186                  121.83687043              80             130               0                 Open   ;
 WP0750               WJ0494               WJ0513                  83.553705966              80             130               0                 Open   ;
 WP0751               WJ0497               WJ0498                  219.10071877              80             130               0                 Open   ;
 WP0752               WJ0497               WJ0499                  67.927660119              80             130               0                 Open   ;
 WP0753               WJ0498               WJ0587                  76.168064193              80             130               0                 Open   ;
 WP0754               WJ0500               WJ0501                  100.65584641              80             130               0                 Open   ;
 WP0755               WJ0500               WJ0502                  52.913192521              80             130               0                 Open   ;
 WP0756               WJ0501               WJ0745                  331.83676975              80             130               0                 Open   ;
 WP0757               WJ0501               WJ0989                   144.4225573              80             130               0                 Open   ;
 WP0758               WJ0501               WJ1320                  71.577904379              80             130               0                 Open   ;
 WP0759               WJ0503               WJ0504                  91.545420711              80             130               0                 Open   ;
 WP0760               WJ0503               WJ0505                  116.94506836              80             130               0                 Open   ;
 WP0761               WJ0503               WJ0506                    89.0313214              80             130               0                 Open   ;
 WP0762               WJ0504               WJ0882                  131.68642011              80             130               0                 Open   ;
 WP0763               WJ0504               WJ0989                  57.379839085              80             130               0                 Open   ;
 WP0764               WJ0504               WJ1309                  91.719121483              80             130               0                 Open   ;
 WP0765               WJ0505               WJ0984                  199.76982329              80             130               0                 Open   ;
 WP0766               WJ0505               WJ1040                  89.605803779              80             130               0                 Open   ;
 WP0767               WJ0508               WJ1269                  48.115964895              80             130               0                 Open   ;
 WP0768               WJ0509               WJ0558                  53.650822758              80             130               0                 Open   ;
 WP0769               WJ0510               WJ0885                  173.51318734              80             130               0                 Open   ;
 WP0770               WJ0510               WJ0886                  58.996537759              80             130               0                 Open   ;
 WP0771               WJ0512               WJ0513                   254.4380661              80             130               0                 Open   ;
 WP0772               WJ0514               WJ0515                  76.488895156              80             130               0                 Open   ;
 WP0773               WJ0515               WJ0568                  219.56004501             200             130               0                 Open   ;
 WP0774               WJ0516               WJ0637                   134.2087388              80             130               0                 Open   ;
 WP0775               WJ0516               WJ0638                  170.69684608              80             130               0                 Open   ;
 WP0776               WJ0519               WJ0520                  40.256544301              80             130               0                 Open   ;
 WP0777               WJ0519               WJ0521                  169.97609782              80             130               0                 Open   ;
 WP0778               WJ0520               WJ1273                  432.20929329              80             130               0                 Open   ;
 WP0779               WJ0522               WJ0523                  69.986901411              80             130               0                 Open   ;
 WP0780               WJ0522               WJ0524                   284.5441449              80             130               0                 Open   ;
 WP0781               WJ0523               WJ0979                  81.837291391              80             130               0                 Open   ;
 WP0782               WJ0525               WJ0526                  531.48352472              80             130               0                 Open   ;
 WP0783               WJ0526               WJ0839                  572.90601372              80             130               0                 Open   ;
 WP0784               WJ0527               WJ0528                  70.092208386             100             130               0                 Open   ;
 WP0785               WJ0527               WJ0529                  64.257511349             100             130               0                 Open   ;
 WP0786               WJ0527               WJ0530                  54.468526037              80             130               0                 Open   ;
 WP0787               WJ0528               WJ1066                  61.578667711             100             130               0                 Open   ;
 WP0788               WJ0528               WJ0645                  66.022571926              80             130               0                 Open   ;
 WP0789               WJ0529               WJ0621                  109.51998391              80             130               0                 Open   ;
 WP0790               WJ0530               WJ0644                  20.110785152              80             130               0                 Open   ;
 WP0791               WJ0531               WJ0567                  90.693460542             150             130               0                 Open   ;
 WP0792               WJ0531               WJ1114                  139.25143967             125             130               0                 Open   ;
 WP0793               WJ0532               WJ1189                   212.9297584              80             130               0                 Open   ;
 WP0794               WJ0533               WJ0534                  80.220122663              80             130               0                 Open   ;
 WP0795               WJ0533               WJ0535                  143.40469313              80             130               0                 Open   ;
 WP0796               WJ0534               WJ0994                    92.3132418              80             130               0                 Open   ;
 WP0797               WJ0534               WJ0760                  128.15576648              80             130               0                 Open   ;
 WP0798               WJ0535               WJ0600                  44.133726442              80             130               0                 Open   ;
 WP0799               WJ0535               WJ0760                  79.093977848              80             130               0                 Open   ;
 WP0800               WJ0536               WJ0537                  126.30555786              80             130               0                 Open   ;
 WP0801               WJ0536               WJ0538                  6.7861371568              80             130               0                 Open   ;
 WP0802               WJ0536               WJ0539                  26.573373018              80             130               0                 Open   ;
 WP0803               WJ0537               WJ0735                  1682.3302069              80             130               0                 Open   ;
 WP0804               WJ0537               WJ1170                  172.22424004              80             130               0                 Open   ;
 WP0805               WJ0538               WJ0770                   343.3752945              80             130               0                 Open   ;
 WP0806               WJ0538               WJ1064                   977.2016341              80             130               0                 Open   ;
 WP0807               WJ0540               WJ0541                  145.78841406              80             130               0                 Open   ;
 WP0808               WJ0540               WJ0542                  49.795306871              80             130               0                 Open   ;
 WP0809               WJ0540               WJ0543                  279.86997162              80             130               0                 Open   ;
 WP0810               WJ0540               WJ0544                  9.9823952125              80             130               0                 Open   ;
 WP0811               WJ0541               WJ1209                  32.555790623              80             130               0                 Open   ;
 WP0812               WJ0541               WJ1247                  11.289369831              80             130               0                 Open   ;
 WP0813               WJ0542               WJ0641                  44.834176873              80             130               0                 Open   ;
 WP0814               WJ0542               WJ0642                  9.9098970005              80             130               0                 Open   ;
 WP0815               WJ0544               WJ0642                  49.933978042              80             130               0                 Open   ;
 WP0816               WJ0544               WJ1247                  145.26646794              80             130               0                 Open   ;
 WP0817               WJ0545               WJ0546                  27.942867295              80             130               0                 Open   ;
 WP0818               WJ0546               WJ1022                  65.683023095              80             130               0                 Open   ;
 WP0819               WJ0546               WJ0703                  162.57651117              80             130               0                 Open   ;
 WP0820               WJ0547               WJ0548                  406.29249296              80             130               0                 Open   ;
 WP0821               WJ0548               WJ1214                  1095.3197872             100             130               0                 Open   ;
 WP0822               WJ0549               WJ0550                  221.15230545              80             130               0                 Open   ;
 WP0823               WJ0550               WJ0836                  14.703253927              80             130               0                 Open   ;
 WP0824               WJ0551               WJ0580                  138.86926089              80             130               0                 Open   ;
 WP0825               WJ0551               WJ1230                  12.288664016              80             130               0                 Open   ;
 WP0826               WJ0552               WJ1230                  13.115320171              80             130               0                 Open   ;
 WP0827               WJ0553               WJ1275                  222.75432957              80             130               0                 Open   ;
 WP0828               WJ0553               WJ0672                   18.63066427              80             130               0                 Open   ;
 WP0829               WJ0555               WJ0556                  346.61115811              80             130               0                 Open   ;
 WP0830               WJ0556               WJ1315                  190.86594053              80             130               0                 Open   ;
 WP0831               WJ0557               WJ0558                  71.800428444              80             130               0                 Open   ;
 WP0832               WJ0558               WJ0601                   81.51831594              80             130               0                 Open   ;
 WP0833               WJ0559               WJ0668                  133.15650266              80             130               0                 Open   ;
 WP0834               WJ0559               WJ0562                  86.458597348              80             130               0                 Open   ;
 WP0835               WJ0561               WJ0562                  52.648646795              80             130               0                 Open   ;
 WP0836               WJ0561               WJ0563                  45.032754034              80             130               0                 Open   ;
 WP0837               WJ0561               WJ0564                  153.16734087              80             130               0                 Open   ;
 WP0838               WJ0562               WJ0668                  200.60941306              80             130               0                 Open   ;
 WP0839               WJ0563               WJ1191                  844.02497668              80             130               0                 Open   ;
 WP0840               WJ0565               WJ1054                  63.449113265              80             130               0                 Open   ;
 WP0841               WJ0565               WJ1227                  158.52364643              80             130               0                 Open   ;
 WP0842               WJ0567               WJ0568                  371.16017836             200             130               0                 Open   ;
 WP0843               WJ0567               WJ0569                  78.778592399             100             130               0                 Open   ;
 WP0844               WJ0568               WJ1244                   253.0262141              80             130               0                 Open   ;
 WP0845               WJ0569               WJ1093                  96.594344877              80             130               0                 Open   ;
 WP0846               WJ0569               WJ1110                  16.093784001             100             130               0                 Open   ;
 WP0847               WJ0570               WJ0571                  17.013046522             125             130               0                 Open   ;
 WP0848               WJ0571               WJ0837                  198.13852438             125             130               0                 Open   ;
 WP0849               WJ0571               WJ0838                  124.88887941              80             130               0                 Open   ;
 WP0850               WJ0572               WJ0573                  117.02244512              80             130               0                 Open   ;
 WP0851               WJ0572               WJ0574                  127.48918005              80             130               0                 Open   ;
 WP0852               WJ0572               WJ0575                  127.65340373              80             130               0                 Open   ;
 WP0853               WJ0573               WJ0670                  100.63946283              80             130               0                 Open   ;
 WP0854               WJ0574               WJ0575                  11.543346465              80             130               0                 Open   ;
 WP0855               WJ0574               WJ1258                  728.29892329              80             130               0                 Open   ;
 WP0856               WJ0575               WJ1176                  167.88606513              80             130               0                 Open   ;
 WP0857               WJ0576               WJ0577                  336.80020074              80             130               0                 Open   ;
 WP0858               WJ0579               WJ0827                  3.9280666875             100             130               0                 Open   ;
 WP0859               WJ0579               WJ1225                  89.649887466              80             130               0                 Open   ;
 WP0860               WJ0581               WJ0582                  67.744731361              80             130               0                 Open   ;
 WP0861               WJ0583               WJ0584                  100.10386695              80             130               0                 Open   ;
 WP0862               WJ0584               WJ1207                    37.7677948              80             130               0                 Open   ;
 WP0863               WJ0584               WJ0874                  153.97229794              80             130               0                 Open   ;
 WP0864               WJ0585               WJ0723                  185.88550936              80             130               0                 Open   ;
 WP0865               WJ0586               WJ0587                  55.261125123              80             130               0                 Open   ;
 WP0866               WJ0587               WJ0919                  175.61648353              80             130               0                 Open   ;
 WP0867               WJ0590               WJ1281                  121.94496155              80             130               0                 Open   ;
 WP0868               WJ0592               WJ0593                  597.62523386             300             130               0                 Open   ;
 WP0869               WJ0593               WJ1134                  68.314078288              80             130               0                 Open   ;
 WP0870               WJ0594               WJ0619                  45.077432091              80             130               0                 Open   ;
 WP0871               WJ0594               WJ0620                   36.68683174              80             130               0                 Open   ;
 WP0872               WJ0596               WJ0597                  42.432704167             100             130               0                 Open   ;
 WP0873               WJ0596               WJ0598                  125.59304513              80             130               0                 Open   ;
 WP0874               WJ0596               WJ0599                  118.28424158              80             130               0                 Open   ;
 WP0875               WJ0597               WJ0782                  47.434798016             100             130               0                 Open   ;
 WP0876               WJ0597               WJ1091                   41.88365767              80             130               0                 Open   ;
 WP0877               WJ0598               WJ0944                  100.61739341              80             130               0                 Open   ;
 WP0878               WJ0598               WJ1233                  87.410227968              80             130               0                 Open   ;
 WP0879               WJ0599               WJ0872                  137.38911473              80             130               0                 Open   ;
 WP0880               WJ0600               WJ0601                  88.878505563              80             130               0                 Open   ;
 WP0881               WJ0601               WJ1234                  155.51963176              80             130               0                 Open   ;
 WP0882               WJ0602               WJ0603                  36.203784829              80             130               0                 Open   ;
 WP0883               WJ0604               WJ0605                  304.39508986              80             130               0                 Open   ;
 WP0884               WJ0606               WJ0607                  130.63808117              80             130               0                 Open   ;
 WP0885               WJ0606               WJ0608                  156.64627327              80             130               0                 Open   ;
 WP0886               WJ0609               WJ0610                   174.4085183             125             130               0                 Open   ;
 WP0887               WJ0609               WJ0611                  3.9577612735             125             130               0                 Open   ;
 WP0888               WJ0609               WJ0612                  106.23438371              80             130               0                 Open   ;
 WP0889               WJ0610               WJ1108                  75.440925308             125             130               0                 Open   ;
 WP0890               WJ0611               WJ0613                  108.28085248             100             130               0                 Open   ;
 WP0891               WJ0611               WJ1068                   21.72728178              80             130               0                 Open   ;
 WP0892               WJ0613               WJ0614                   66.76268068             100             130               0                 Open   ;
 WP0893               WJ0614               WJ0662                  43.730767123             100             130               0                 Open   ;
 WP0894               WJ0614               WJ0663                  198.63806796              80             130               0                 Open   ;
 WP0895               WJ0615               WJ0968                   41.33720515              80             130               0                 Open   ;
 WP0896               WJ0615               WJ1160                  106.23196645              80             130               0                 Open   ;
 WP0897               WJ0617               WJ1222                  18.584206912              80             130               0                 Open   ;
 WP0898               WJ0617               WJ0769                  98.739812767              80             130               0                 Open   ;
 WP0899               WJ0619               WJ0903                  103.26427267              80             130               0                 Open   ;
 WP0900               WJ0619               WJ0620                  14.838509469              80             130               0                 Open   ;
 WP0901               WJ0620               WJ1211                  339.37889306              80             130               0                 Open   ;
 WP0902               WJ0621               WJ0728                  45.864839647              80             130               0                 Open   ;
 WP0903               WJ0621               WJ0733                  80.227808853              80             130               0                 Open   ;
 WP0904               WJ0622               WJ0623                  157.86453372              80             130               0                 Open   ;
 WP0905               WJ0622               WJ0624                  149.61662819              80             130               0                 Open   ;
 WP0906               WJ0623               WJ0976                  120.15653825              80             130               0                 Open   ;
 WP0907               WJ0623               WJ0970                  271.28778524             100             130               0                 Open   ;
 WP0908               WJ0624               WJ1145                  192.34855409              80             130               0                 Open   ;
 WP0909               WJ0624               WJ1146                  72.577841642              80             130               0                 Open   ;
 WP0910               WJ0625               WJ0626                  497.49132499              80             130               0                 Open   ;
 WP0911               WJ0625               WJ0627                  188.60408149              80             130               0                 Open   ;
 WP0912               WJ0625               WJ0628                  188.51953759              80             130               0                 Open   ;
 WP0913               WJ0626               WJ0679                  149.88804897              80             130               0                 Open   ;
 WP0914               WJ0626               WJ1154                  160.71116536              80             130               0                 Open   ;
 WP0915               WJ0627               WJ1229                  107.99883009              80             130               0                 Open   ;
 WP0916               WJ0629               WJ0630                    110.118108              80             130               0                 Open   ;
 WP0917               WJ0629               WJ0631                  9.9143378255              80             130               0                 Open   ;
 WP0918               WJ0629               WJ0632                  331.66521619              80             130               0                 Open   ;
 WP0919               WJ0630               WJ0903                  92.545289984              80             130               0                 Open   ;
 WP0920               WJ0630               WJ0797                  202.68167676              80             130               0                 Open   ;
 WP0921               WJ0631               WJ0771                  138.18160864              80             130               0                 Open   ;
 WP0922               WJ0633               WJ1015                  173.93076333              80             130               0                 Open   ;
 WP0923               WJ0635               WJ0636                  96.060779816              80             130               0                 Open   ;
 WP0924               WJ0636               WJ0799                  62.619115334             200             130               0                 Open   ;
 WP0925               WJ0636               WJ0683                  70.991269867             250             130               0                 Open   ;
 WP0926               WJ0637               WJ1180                  143.10671703              80             130               0                 Open   ;
 WP0927               WJ0637               WJ1219                  320.57633538              80             130               0                 Open   ;
 WP0928               WJ0639               WJ0640                  229.73399798              80             130               0                 Open   ;
 WP0929               WJ0640               WJ0753                  210.81635381              80             130               0                 Open   ;
 WP0930               WJ0640               WJ0946                  29.950476634              80             130               0                 Open   ;
 WP0931               WJ0641               WJ1011                  10.400965873              80             130               0                 Open   ;
 WP0932               WJ0642               WJ1011                  44.758414175              80             130               0                 Open   ;
 WP0933               WJ0644               WJ0645                  52.487769699             100             130               0                 Open   ;
 WP0934               WJ0644               WJ0646                  171.28433127             125             130               0                 Open   ;
 WP0935               WJ0645               WJ0925                  78.965387457             100             130               0                 Open   ;
 WP0936               WJ0646               WJ0773                  66.217573909             100             130               0                 Open   ;
 WP0937               WJ0646               WJ1322                  56.041590252              80             130               0                 Open   ;
 WP0938               WJ0647               WJ0648                  204.15989279              80             130               0                 Open   ;
 WP0939               WJ0647               WJ0649                  94.136596212              80             130               0                 Open   ;
 WP0940               WJ0648               WJ0985                  19.839708577              80             130               0                 Open   ;
 WP0941               WJ0650               WJ0651                  134.23489272             150             130               0                 Open   ;
 WP0942               WJ0651               WJ0941                  238.16274827              80             130               0                 Open   ;
 WP0943               WJ0651               WJ0948                  72.775537092             150             130               0                 Open   ;
 WP0944               WJ0652               WJ0653                  47.632962816             100             130               0                 Open   ;
 WP0945               WJ0652               WJ0654                  73.532022158             100             130               0                 Open   ;
 WP0946               WJ0652               WJ0655                  92.281183265              80             130               0                 Open   ;
 WP0947               WJ0653               WJ0810                  47.275433433             125             130               0                 Open   ;
 WP0948               WJ0653               WJ0920                  129.52188919              80             130               0                 Open   ;
 WP0949               WJ0654               WJ1326                  49.603642562              80             130               0                 Open   ;
 WP0950               WJ0656               WJ0657                  67.593574354              80             130               0                 Open   ;
 WP0951               WJ0656               WJ0658                  140.72621539              80             130               0                 Open   ;
 WP0952               WJ0659               WJ0660                  143.14051587              80             130               0                 Open   ;
 WP0953               WJ0659               WJ0661                  55.315040289              80             130               0                 Open   ;
 WP0954               WJ0660               WJ0844                  59.400301285              80             130               0                 Open   ;
 WP0955               WJ0661               WJ0786                  183.50433017              80             130               0                 Open   ;
 WP0956               WJ0662               WJ1246                  124.60973203              80             130               0                 Open   ;
 WP0957               WJ0662               WJ0825                  34.912753336              80             130               0                 Open   ;
 WP0958               WJ0663               WJ1172                  112.36810978              80             130               0                 Open   ;
 WP0959               WJ0664               WJ0665                  40.047441876              80             130               0                 Open   ;
 WP0960               WJ0665               WJ1108                  36.711726895             125             130               0                 Open   ;
 WP0961               WJ0665               WJ1228                  64.140490416             125             130               0                 Open   ;
 WP0962               WJ0666               WJ0667                  159.24563349              80             130               0                 Open   ;
 WP0963               WJ0667               WJ0830                   740.8060965              80             130               0                 Open   ;
 WP0964               WJ0667               WJ1268                  107.84330759              80             130               0                 Open   ;
 WP0965               WJ0668               WJ0669                  973.22138557              80             130               0                 Open   ;
 WP0966               WJ0669               WJ1148                  191.33926875              80             130               0                 Open   ;
 WP0967               WJ0669               WJ1263                  41.927941663              80             130               0                 Open   ;
 WP0968               WJ0670               WJ0704                  47.086073698              80             130               0                 Open   ;
 WP0969               WJ0670               WJ0705                  329.57593338              80             130               0                 Open   ;
 WP0970               WJ0671               WJ0672                  138.86485936              80             130               0                 Open   ;
 WP0971               WJ0673               WJ0674                  47.603933503              80             130               0                 Open   ;
 WP0972               WJ0673               WJ0675                  143.16154077              80             130               0                 Open   ;
 WP0973               WJ0673               WJ0676                  6.1317818383              80             130               0                 Open   ;
 WP0974               WJ0674               WJ1042                  218.46969709              80             130               0                 Open   ;
 WP0975               WJ0674               WJ0748                   114.6381396              80             130               0                 Open   ;
 WP0976               WJ0677               WJ0678                  210.08677225              80             130               0                 Open   ;
 WP0977               WJ0679               WJ0680                  109.37000388              80             130               0                 Open   ;
 WP0978               WJ0680               WJ0781                  378.91216806              80             130               0                 Open   ;
 WP0979               WJ0681               WJ0682                  193.76710381             250             130               0                 Open   ;
 WP0980               WJ0681               WJ0683                  194.52207936             250             130               0                 Open   ;
 WP0981               WJ0681               WJ0684                  66.819263941              80             130               0                 Open   ;
 WP0982               WJ0683               WJ1078                  61.613311484              80             130               0                 Open   ;
 WP0983               WJ0685               WJ0686                  126.83390956              80             130               0                 Open   ;
 WP0984               WJ0686               WJ1076                  190.92217684              80             130               0                 Open   ;
 WP0985               WJ0686               WJ1278                  393.42435902              80             130               0                 Open   ;
 WP0986               WJ0688               WJ0689                  134.10032076             200             130               0                 Open   ;
 WP0987               WJ0688               WJ0690                  35.552067059             200             130               0                 Open   ;
 WP0988               WJ0688               WJ0691                   10.75152135              80             130               0                 Open   ;
 WP0989               WJ0689               WJ1066                  91.273487841             200             130               0                 Open   ;
 WP0990               WJ0690               WJ1133                  155.32128098             200             130               0                 Open   ;
 WP0991               WJ0690               WJ1121                  153.63125605              80             130               0                 Open   ;
 WP0992               WJ0693               WJ0694                  89.635471616             125             130               0                 Open   ;
 WP0993               WJ0693               WJ0695                  148.50879661              80             130               0                 Open   ;
 WP0994               WJ0693               WJ0696                  73.763369766              80             130               0                 Open   ;
 WP0995               WJ0694               WJ0706                  120.52022013             125             130               0                 Open   ;
 WP0996               WJ0695               WJ1198                   188.7413552              80             130               0                 Open   ;
 WP0997               WJ0696               WJ1282                  124.01689674              80             130               0                 Open   ;
 WP0998               WJ0696               WJ0995                   166.3751974              80             130               0                 Open   ;
 WP0999               WJ0697               WJ0698                  54.957201151              80             130               0                 Open   ;
 WP1000               WJ0700               WJ0701                  157.65824764              80             130               0                 Open   ;
 WP1001               WJ0702               WJ0703                  238.26443499              80             130               0                 Open   ;
 WP1002               WJ0703               WJ1128                  128.73706666              80             130               0                 Open   ;
 WP1003               WJ0704               WJ0825                  46.595869117              80             130               0                 Open   ;
 WP1004               WJ0705               WJ1250                  164.00475106              80             130               0                 Open   ;
 WP1005               WJ0706               WJ0707                  185.15417517              80             130               0                 Open   ;
 WP1006               WJ0708               WJ0709                  222.91934534             100             130               0                 Open   ;
 WP1007               WJ0708               WJ0710                  10.965916609              80             130               0                 Open   ;
 WP1008               WJ0709               WJ1047                  266.31899327             125             130               0                 Open   ;
 WP1009               WJ0709               WJ1048                  26.645840184             100             130               0                 Open   ;
 WP1010               WJ0713               WJ0714                  32.306759914              80             130               0                 Open   ;
 WP1011               WJ0714               WJ0846                  125.99946052             200             130               0                 Open   ;
 WP1012               WJ0715               WJ0716                  302.72457288             125             130               0                 Open   ;
 WP1013               WJ0715               WJ0717                  66.448044944              80             130               0                 Open   ;
 WP1014               WJ0716               WJ1148                  127.04521683              80             130               0                 Open   ;
 WP1015               WJ0718               WJ0719                  75.262013788             150             130               0                 Open   ;
 WP1016               WJ0718               WJ0720                   14.00044393              80             130               0                 Open   ;
 WP1017               WJ0719               WJ0722                  99.431119349             100             130               0                 Open   ;
 WP1018               WJ0719               WJ1083                  64.686676246             150             130               0                 Open   ;
 WP1019               WJ0721               WJ0722                  93.590346221              80             130               0                 Open   ;
 WP1020               WJ0723               WJ1217                  224.16861943              80             130               0                 Open   ;
 WP1021               WJ0724               WJ0725                  86.151296941              80             130               0                 Open   ;
 WP1022               WJ0725               WJ0969                  44.746392594              80             130               0                 Open   ;
 WP1023               WJ0726               WJ0727                  57.472391231              80             130               0                 Open   ;
 WP1024               WJ0727               WJ0868                  78.614674521              80             130               0                 Open   ;
 WP1025               WJ0729               WJ0730                  270.93703475              80             130               0                 Open   ;
 WP1026               WJ0730               WJ0777                  158.35210941              80             130               0                 Open   ;
 WP1027               WJ0731               WJ0732                  187.75120793              80             130               0                 Open   ;
 WP1028               WJ0732               WJ1034                  193.08118313              80             130               0                 Open   ;
 WP1029               WJ0732               WJ1035                  526.18115526              80             130               0                 Open   ;
 WP1030               WJ0735               WJ0736                  66.921517588              80             130               0                 Open   ;
 WP1031               WJ0737               WJ0753                  58.062593721              80             130               0                 Open   ;
 WP1032               WJ0737               WJ1256                  192.30888134              80             130               0                 Open   ;
 WP1033               WJ0739               WJ0740                  277.04076581              80             130               0                 Open   ;
 WP1034               WJ0740               WJ1274                  42.527679218              80             130               0                 Open   ;
 WP1035               WJ0740               WJ1067                  157.27753406              80             130               0                 Open   ;
 WP1036               WJ0741               WJ0812                  441.83579717             200             130               0                 Open   ;
 WP1037               WJ0741               WJ0813                  68.985056117              80             130               0                 Open   ;
 WP1038               WJ0742               WJ0743                  117.76732265              80             130               0                 Open   ;
 WP1039               WJ0746               WJ0747                  218.54884431              80             130               0                 Open   ;
 WP1040               WJ0746               WJ0748                  84.369590275              80             130               0                 Open   ;
 WP1041               WJ0747               WJ1319                  776.59547334             150             130               0                 Open   ;
 WP1042               WJ0747               WJ0763                  23.913496062             125             130               0                 Open   ;
 WP1043               WJ0748               WJ1129                  70.031928697              80             130               0                 Open   ;
 WP1044               WJ0749               WJ0750                  44.969611381              80             130               0                 Open   ;
 WP1045               WJ0749               WJ0751                  49.366802381              80             130               0                 Open   ;
 WP1046               WJ0750               WJ0757                  436.43422004              80             130               0                 Open   ;
 WP1047               WJ0750               WJ1178                   326.5049395              80             130               0                 Open   ;
 WP1048               WJ0752               WJ0753                  88.055716894              80             130               0                 Open   ;
 WP1049               WJ0754               WJ0755                  111.49346465              80             130               0                 Open   ;
 WP1050               WJ0754               WJ0756                  105.41681606              80             130               0                 Open   ;
 WP1051               WJ0756               WJ0776                  169.04077758              80             130               0                 Open   ;
 WP1052               WJ0758               WJ0759                  190.03620958              80             130               0                 Open   ;
 WP1053               WJ0759               WJ0780                  237.36410161              80             130               0                 Open   ;
 WP1054               WJ0762               WJ0763                   644.7218744              80             130               0                 Open   ;
 WP1055               WJ0762               WJ0764                  99.109588992              80             130               0                 Open   ;
 WP1056               WJ0762               WJ0765                  93.763596925              80             130               0                 Open   ;
 WP1057               WJ0763               WJ1294                  182.70335103              80             130               0                 Open   ;
 WP1058               WJ0764               WJ1192                  184.44566362              80             130               0                 Open   ;
 WP1059               WJ0765               WJ1045                  29.216387717              80             130               0                 Open   ;
 WP1060               WJ0766               WJ0767                  11.918696193              80             130               0                 Open   ;
 WP1061               WJ0767               WJ1013                  126.68607237              80             130               0                 Open   ;
 WP1062               WJ0768               WJ0769                  113.18209628              80             130               0                 Open   ;
 WP1063               WJ0769               WJ1313                  76.664915484              80             130               0                 Open   ;
 WP1064               WJ0772               WJ0773                  90.379765279             100             130               0                 Open   ;
 WP1065               WJ0772               WJ0774                  125.83242538             100             130               0                 Open   ;
 WP1066               WJ0772               WJ0775                  314.85607832              80             130               0                 Open   ;
 WP1067               WJ0774               WJ1012                  28.381118538              80             130               0                 Open   ;
 WP1068               WJ0774               WJ1276                  96.853812636             100             130               0                 Open   ;
 WP1069               WJ0777               WJ0926                  542.39193955             250             130               0                 Open   ;
 WP1070               WJ0777               WJ1147                   121.9882072              80             130               0                 Open   ;
 WP1071               WJ0778               WJ0810                  98.158746922             125             130               0                 Open   ;
 WP1072               WJ0780               WJ0781                  415.63464705              80             130               0                 Open   ;
 WP1073               WJ0782               WJ0783                  110.40470616             200             130               0                 Open   ;
 WP1074               WJ0782               WJ0784                   139.4541208             200             130               0                 Open   ;
 WP1075               WJ0783               WJ0833                   196.5842132             200             130               0                 Open   ;
 WP1076               WJ0783               WJ1051                  295.95525925              80             130               0                 Open   ;
 WP1077               WJ0783               WJ1052                  196.08547162              80             130               0                 Open   ;
 WP1078               WJ0784               WJ1163                  105.36082242              80             130               0                 Open   ;
 WP1079               WJ0784               WJ1233                  45.045599411             200             130               0                 Open   ;
 WP1080               WJ0786               WJ1095                  28.876099354              80             130               0                 Open   ;
 WP1081               WJ0787               WJ0788                  121.83431191              80             130               0                 Open   ;
 WP1082               WJ0788               WJ1104                  141.19686807              80             130               0                 Open   ;
 WP1083               WJ0788               WJ1111                  46.130565129              80             130               0                 Open   ;
 WP1084               WJ0790               WJ0791                  22.618301813              80             130               0                 Open   ;
 WP1085               WJ0790               WJ0792                  86.322529296              80             130               0                 Open   ;
 WP1086               WJ0790               WJ0793                  167.07586871              80             130               0                 Open   ;
 WP1087               WJ0791               WJ1042                  112.55997376              80             130               0                 Open   ;
 WP1088               WJ0794               WJ0795                  85.654783352              80             130               0                 Open   ;
 WP1089               WJ0795               WJ0952                  63.574293999              80             130               0                 Open   ;
 WP1090               WJ0795               WJ1297                  156.64670625              80             130               0                 Open   ;
 WP1091               WJ0796               WJ0797                  72.139990192              80             130               0                 Open   ;
 WP1092               WJ0797               WJ1211                   67.79079255              80             130               0                 Open   ;
 WP1093               WJ0798               WJ0799                  67.293070154             200             130               0                 Open   ;
 WP1094               WJ0798               WJ0800                  288.89175226             200             130               0                 Open   ;
 WP1095               WJ0800               WJ0863                  372.92962771              80             130               0                 Open   ;
 WP1096               WJ0801               WJ0802                  36.991794054              80             130               0                 Open   ;
 WP1097               WJ0802               WJ0916                  144.38082283              80             130               0                 Open   ;
 WP1098               WJ0802               WJ1123                  75.050599743              80             130               0                 Open   ;
 WP1099               WJ0803               WJ0804                   298.6502559              80             130               0                 Open   ;
 WP1100               WJ0803               WJ0805                  71.125036804              80             130               0                 Open   ;
 WP1101               WJ0804               WJ0927                  65.314894251              80             130               0                 Open   ;
 WP1102               WJ0804               WJ1011                  481.79322721              80             130               0                 Open   ;
 WP1103               WJ0806               WJ0807                  167.50452986              80             130               0                 Open   ;
 WP1104               WJ0806               WJ0808                  74.746068324              80             130               0                 Open   ;
 WP1105               WJ0806               WJ0809                  22.903967001              80             130               0                 Open   ;
 WP1106               WJ0807               WJ0966                   104.1647395              80             130               0                 Open   ;
 WP1107               WJ0810               WJ0811                  65.114600726              80             130               0                 Open   ;
 WP1108               WJ0812               WJ1074                  36.825707007             125             130               0                 Open   ;
 WP1109               WJ0812               WJ1075                  39.665651427             125             130               0                 Open   ;
 WP1110               WJ0812               WJ1076                   105.6590211             100             130               0                 Open   ;
 WP1111               WJ0813               WJ0974                  86.102405599              80             130               0                 Open   ;
 WP1112               WJ0813               WJ0931                  65.464788275              80             130               0                 Open   ;
 WP1113               WJ0814               WJ0815                  153.89268726              80             130               0                 Open   ;
 WP1114               WJ0816               WJ0817                  264.50155255             125             130               0                 Open   ;
 WP1115               WJ0816               WJ0818                  156.65480913              80             130               0                 Open   ;
 WP1116               WJ0818               WJ0951                  170.30188993              80             130               0                 Open   ;
 WP1117               WJ0818               WJ1092                  14.338242017              80             130               0                 Open   ;
 WP1118               WJ0820               WJ0821                  55.622966011              80             130               0                 Open   ;
 WP1119               WJ0821               WJ1136                  811.94976183              80             130               0                 Open   ;
 WP1120               WJ0823               WJ1218                  38.805462176              80             130               0                 Open   ;
 WP1121               WJ0823               WJ1243                  23.033116922              80             130               0                 Open   ;
 WP1122               WJ0824               WJ0825                  258.12640357              80             130               0                 Open   ;
 WP1123               WJ0826               WJ0827                  195.61277208              80             130               0                 Open   ;
 WP1124               WJ0827               WJ1023                  436.07827965             100             130               0                 Open   ;
 WP1125               WJ0828               WJ0829                  111.41259598              80             130               0                 Open   ;
 WP1126               WJ0831               WJ1236                  112.45107429              80             130               0                 Open   ;
 WP1127               WJ0831               WJ1298                  296.81141139              80             130               0                 Open   ;
 WP1128               WJ0836               WJ1177                  272.23496165              80             130               0                 Open   ;
 WP1129               WJ0837               WJ1199                  194.98443725              80             130               0                 Open   ;
 WP1130               WJ0840               WJ0841                  303.07513367              80             130               0                 Open   ;
 WP1131               WJ0841               WJ1193                  101.84949064              80             130               0                 Open   ;
 WP1132               WJ0842               WJ0843                  4.4353124023             100             130               0                 Open   ;
 WP1133               WJ0842               WJ0844                  283.49504017             100             130               0                 Open   ;
 WP1134               WJ0843               WJ0992                  68.051507336             100             130               0                 Open   ;
 WP1135               WJ0843               WJ1083                  16.591052368             125             130               0                 Open   ;
 WP1136               WJ0846               WJ0945                  62.391805289              80             130               0                 Open   ;
 WP1137               WJ0846               WJ1233                  71.005986888             200             130               0                 Open   ;
 WP1138               WJ0847               WJ0848                   252.2653788             125             130               0                 Open   ;
 WP1139               WJ0847               WJ0849                  486.51993296              80             130               0                 Open   ;
 WP1140               WJ0848               WJ0979                  170.43026952             125             130               0                 Open   ;
 WP1141               WJ0848               WJ1138                    44.1507822              80             130               0                 Open   ;
 WP1142               WJ0849               WJ0900                  95.710236964              80             130               0                 Open   ;
 WP1143               WJ0850               WJ0851                  140.41414939              80             130               0                 Open   ;
 WP1144               WJ0851               WJ0942                  89.586616138              80             130               0                 Open   ;
 WP1145               WJ0851               WJ1197                  102.54656606              80             130               0                 Open   ;
 WP1146               WJ0854               WJ0855                  223.68604194              80             130               0                 Open   ;
 WP1147               WJ0854               WJ0856                   66.09970837              80             130               0                 Open   ;
 WP1148               WJ0855               WJ0913                  34.355744314              80             130               0                 Open   ;
 WP1149               WJ0857               WJ0858                   36.55201189              80             130               0                 Open   ;
 WP1150               WJ0857               WJ0859                  88.204176008              80             130               0                 Open   ;
 WP1151               WJ0857               WJ0860                  35.639691371              80             130               0                 Open   ;
 WP1152               WJ0858               WJ1068                   101.1736014              80             130               0                 Open   ;
 WP1153               WJ0858               WJ0860                  47.453041455              80             130               0                 Open   ;
 WP1154               WJ0860               WJ0861                  467.49637011              80             130               0                 Open   ;
 WP1155               WJ0860               WJ1304                  64.200647227              80             130               0                 Open   ;
 WP1156               WJ0862               WJ0876                  37.199526843              80             130               0                 Open   ;
 WP1157               WJ0862               WJ1292                  297.39539303              80             130               0                 Open   ;
 WP1158               WJ0865               WJ0866                  118.60105766              80             130               0                 Open   ;
 WP1159               WJ0866               WJ0981                  6.2574849521              80             130               0                 Open   ;
 WP1160               WJ0866               WJ1076                   121.1655386              80             130               0                 Open   ;
 WP1161               WJ0867               WJ0868                  236.92693371              80             130               0                 Open   ;
 WP1162               WJ0869               WJ0870                  50.609589199              80             130               0                 Open   ;
 WP1163               WJ0872               WJ0873                  208.69786033              80             130               0                 Open   ;
 WP1164               WJ0873               WJ0874                  180.99991004              80             130               0                 Open   ;
 WP1165               WJ0873               WJ0875                   39.48060345              80             130               0                 Open   ;
 WP1166               WJ0875               WJ1043                  122.66080561              80             130               0                 Open   ;
 WP1167               WJ0875               WJ1044                  311.06402464              80             130               0                 Open   ;
 WP1168               WJ0877               WJ0878                  11.510238274              80             130               0                 Open   ;
 WP1169               WJ0878               WJ1038                  172.28542698              80             130               0                 Open   ;
 WP1170               WJ0880               WJ0881                  271.77889201              80             130               0                 Open   ;
 WP1171               WJ0881               WJ0897                  52.982790027              80             130               0                 Open   ;
 WP1172               WJ0881               WJ1110                  77.628192554              80             130               0                 Open   ;
 WP1173               WJ0882               WJ0883                   44.37384199              80             130               0                 Open   ;
 WP1174               WJ0882               WJ0884                  27.804950806              80             130               0                 Open   ;
 WP1175               WJ0883               WJ1023                  53.018830459             100             130               0                 Open   ;
 WP1176               WJ0883               WJ1053                  217.28341399              80             130               0                 Open   ;
 WP1177               WJ0888               WJ0889                  350.16320651              80             130               0                 Open   ;
 WP1178               WJ0888               WJ0890                  280.91629229              80             130               0                 Open   ;
 WP1179               WJ0889               WJ0943                  104.77893696              80             130               0                 Open   ;
 WP1180               WJ0891               WJ1015                  380.47373719              80             130               0                 Open   ;
 WP1181               WJ0891               WJ1016                   62.75566595              80             130               0                 Open   ;
 WP1182               WJ0892               WJ0893                   186.6632061              80             130               0                 Open   ;
 WP1183               WJ0892               WJ0894                  183.12018071              80             130               0                 Open   ;
 WP1184               WJ0892               WJ0895                  22.717981964              80             130               0                 Open   ;
 WP1185               WJ0893               WJ0977                  219.23913308              80             130               0                 Open   ;
 WP1186               WJ0893               WJ1203                  92.676652132              80             130               0                 Open   ;
 WP1187               WJ0897               WJ0898                  304.29075128              80             130               0                 Open   ;
 WP1188               WJ0898               WJ1055                  157.11638099              80             130               0                 Open   ;
 WP1189               WJ0899               WJ0900                  553.61614134              80             130               0                 Open   ;
 WP1190               WJ0900               WJ1025                  242.43117164              80             130               0                 Open   ;
 WP1191               WJ0901               WJ1205                  37.940669809              80             130               0                 Open   ;
 WP1192               WJ0901               WJ1227                  25.115648815             125             130               0                 Open   ;
 WP1193               WJ0902               WJ0903                  38.114818875              80             130               0                 Open   ;
 WP1194               WJ0904               WJ0905                  226.53709875              80             130               0                 Open   ;
 WP1195               WJ0905               WJ0923                  99.397040643              80             130               0                 Open   ;
 WP1196               WJ0906               WJ0907                  314.63751784              80             130               0                 Open   ;
 WP1197               WJ0906               WJ0908                  10.644608967              80             130               0                 Open   ;
 WP1198               WJ0908               WJ1119                  26.357987196              80             130               0                 Open   ;
 WP1199               WJ0909               WJ0910                  140.85518129             150             130               0                 Open   ;
 WP1200               WJ0909               WJ0911                  194.82380079             150             130               0                 Open   ;
 WP1201               WJ0910               WJ1026                  40.564456353              80             130               0                 Open   ;
 WP1202               WJ0911               WJ0979                  32.486570925             150             130               0                 Open   ;
 WP1203               WJ0911               WJ0980                  131.29230082              80             130               0                 Open   ;
 WP1204               WJ0912               WJ0913                  128.42261735              80             130               0                 Open   ;
 WP1205               WJ0912               WJ0914                  111.31781805              80             130               0                 Open   ;
 WP1206               WJ0915               WJ1079                  452.55474425              80             130               0                 Open   ;
 WP1207               WJ0917               WJ0996                  81.771311184              80             130               0                 Open   ;
 WP1208               WJ0918               WJ1167                   25.65810302              80             130               0                 Open   ;
 WP1209               WJ0918               WJ0996                  40.236558064              80             130               0                 Open   ;
 WP1210               WJ0920               WJ0921                  223.81193478              80             130               0                 Open   ;
 WP1211               WJ0920               WJ0922                  52.857447578              80             130               0                 Open   ;
 WP1212               WJ0921               WJ1065                  56.080288383              80             130               0                 Open   ;
 WP1213               WJ0921               WJ1028                  210.48279663              80             130               0                 Open   ;
 WP1214               WJ0925               WJ0926                  25.349723744             125             130               0                 Open   ;
 WP1215               WJ0926               WJ1066                  42.791884907             200             130               0                 Open   ;
 WP1216               WJ0928               WJ0929                  160.89405804              80             130               0                 Open   ;
 WP1217               WJ0929               WJ0986                  194.37562475              80             130               0                 Open   ;
 WP1218               WJ0930               WJ0931                  151.06746845              80             130               0                 Open   ;
 WP1219               WJ0930               WJ0932                  97.986432715              80             130               0                 Open   ;
 WP1220               WJ0931               WJ1171                  32.014075666              80             130               0                 Open   ;
 WP1221               WJ0932               WJ1072                  218.09452512              80             130               0                 Open   ;
 WP1222               WJ0932               WJ0986                  32.333011521              80             130               0                 Open   ;
 WP1223               WJ0934               WJ0935                  30.448593221              80             130               0                 Open   ;
 WP1224               WJ0934               WJ0936                  107.87515966              80             130               0                 Open   ;
 WP1225               WJ0934               WJ0937                  9.3214367873              80             130               0                 Open   ;
 WP1226               WJ0935               WJ1107                  203.07516701              80             130               0                 Open   ;
 WP1227               WJ0936               WJ1299                  194.75194015              80             130               0                 Open   ;
 WP1228               WJ0938               WJ0939                  130.95464263              80             130               0                 Open   ;
 WP1229               WJ0939               WJ1179                  403.02462432              80             130               0                 Open   ;
 WP1230               WJ0944               WJ0945                  22.927764653              80             130               0                 Open   ;
 WP1231               WJ0947               WJ0948                  85.022622707              80             130               0                 Open   ;
 WP1232               WJ0949               WJ1009                  190.32378784              80             130               0                 Open   ;
 WP1233               WJ0949               WJ1308                  35.401596282              80             130               0                 Open   ;
 WP1234               WJ0952               WJ0953                  130.33267352              80             130               0                 Open   ;
 WP1235               WJ0952               WJ0954                  32.593951117              80             130               0                 Open   ;
 WP1236               WJ0953               WJ1336                  40.025782427              80             130               0                 Open   ;
 WP1237               WJ0953               WJ1276                  78.180335301              80             130               0                 Open   ;
 WP1238               WJ0954               WJ1288                  38.353321729              80             130               0                 Open   ;
 WP1239               WJ0957               WJ1075                  12.542370936             125             130               0                 Open   ;
 WP1240               WJ0957               WJ1319                  9.7359768122             100             130               0                 Open   ;
 WP1241               WJ0958               WJ0959                  681.43693711              80             130               0                 Open   ;
 WP1242               WJ0959               WJ1028                   99.82468796              80             130               0                 Open   ;
 WP1243               WJ0959               WJ1346                  56.429767344              80             130               0                 Open   ;
 WP1244               WJ0962               WJ0963                  195.94844156              80             130               0                 Open   ;
 WP1245               WJ0962               WJ0964                  73.372053612              80             130               0                 Open   ;
 WP1246               WJ0962               WJ0965                  200.03241223              80             130               0                 Open   ;
 WP1247               WJ0966               WJ1161                  93.060735053              80             130               0                 Open   ;
 WP1248               WJ0966               WJ1050                  73.116975441              80             130               0                 Open   ;
 WP1249               WJ0969               WJ1204                   28.79567432              80             130               0                 Open   ;
 WP1250               WJ0969               WJ1264                  380.50317803              80             130               0                 Open   ;
 WP1251               WJ0970               WJ1339                  78.210670544              80             130               0                 Open   ;
 WP1252               WJ0972               WJ1187                  204.45152816             250             130               0                 Open   ;
 WP1253               WJ0976               WJ0977                  178.78303784              80             130               0                 Open   ;
 WP1254               WJ0976               WJ0978                  32.072536543              80             130               0                 Open   ;
 WP1255               WJ0977               WJ1331                  6.3728449654              80             130               0                 Open   ;
 WP1256               WJ0981               WJ0982                  129.02567284              80             130               0                 Open   ;
 WP1257               WJ0981               WJ0983                  23.223637133              80             130               0                 Open   ;
 WP1258               WJ0992               WJ0993                  151.79991699              80             130               0                 Open   ;
 WP1259               WJ0995               WJ1208                   143.6951061              80             130               0                 Open   ;
 WP1260               WJ0996               WJ1240                  188.81903412              80             130               0                 Open   ;
 WP1261               WJ0998               WJ0999                  93.706442758              80             130               0                 Open   ;
 WP1262               WJ1001               WJ1002                  118.81478543              80             130               0                 Open   ;
 WP1263               WJ1001               WJ1003                  25.855268055              80             130               0                 Open   ;
 WP1264               WJ1007               WJ1008                  114.21511009              80             130               0                 Open   ;
 WP1265               WJ1008               WJ1265                  68.370153233              80             130               0                 Open   ;
 WP1266               WJ1008               WJ1293                  10.106665106              80             130               0                 Open   ;
 WP1267               WJ1009               WJ1033                  44.977947409              80             130               0                 Open   ;
 WP1268               WJ1013               WJ1014                  151.10147344              80             130               0                 Open   ;
 WP1269               WJ1014               WJ1110                  233.23527017              80             130               0                 Open   ;
 WP1270               WJ1015               WJ1345                  250.52478797              80             130               0                 Open   ;
 WP1271               WJ1018               WJ1019                  87.251194347              80             130               0                 Open   ;
 WP1272               WJ1018               WJ1020                  190.48678997              80             130               0                 Open   ;
 WP1273               WJ1019               WJ1209                  77.989423018              80             130               0                 Open   ;
 WP1274               WJ1022               WJ1077                   61.94952978              80             130               0                 Open   ;
 WP1275               WJ1022               WJ1332                  171.15791973              80             130               0                 Open   ;
 WP1276               WJ1023               WJ1024                  731.71523297              80             130               0                 Open   ;
 WP1277               WJ1024               WJ1139                   47.05052256              80             130               0                 Open   ;
 WP1278               WJ1027               WJ1028                  428.21414658              80             130               0                 Open   ;
 WP1279               WJ1028               WJ1082                  150.81295522              80             130               0                 Open   ;
 WP1280               WJ1031               WJ1277                  110.77343534              80             130               0                 Open   ;
 WP1281               WJ1033               WJ1153                  72.703825464              80             130               0                 Open   ;
 WP1282               WJ1033               WJ1333                  328.64138542              80             130               0                 Open   ;
 WP1283               WJ1034               WJ1290                   228.0114895             125             130               0                 Open   ;
 WP1284               WJ1034               WJ1124                   159.8679987             150             130               0                 Open   ;
 WP1285               WJ1039               WJ1081                  109.56478841              80             130               0                 Open   ;
 WP1286               WJ1039               WJ1113                  277.62411818             100             130               0                 Open   ;
 WP1287               WJ1041               WJ1042                  116.86603244              80             130               0                 Open   ;
 WP1288               WJ1047               WJ1242                  132.26454672              80             130               0                 Open   ;
 WP1289               WJ1051               WJ1130                  338.08570074              80             130               0                 Open   ;
 WP1290               WJ1051               WJ1131                  42.415807378              80             130               0                 Open   ;
 WP1291               WJ1055               WJ1254                  172.75854996              80             130               0                 Open   ;
 WP1292               WJ1057               WJ1058                   361.3584768              80             130               0                 Open   ;
 WP1293               WJ1059               WJ1060                  251.75803685              80             130               0                 Open   ;
 WP1294               WJ1060               WJ1271                  172.05110797              80             130               0                 Open   ;
 WP1295               WJ1060               WJ1187                  108.71785688              80             130               0                 Open   ;
 WP1296               WJ1061               WJ1062                  368.58310557              80             130               0                 Open   ;
 WP1297               WJ1061               WJ1063                  170.81976234              80             130               0                 Open   ;
 WP1298               WJ1067               WJ1212                  29.840947998              80             130               0                 Open   ;
 WP1299               WJ1068               WJ1289                   30.74087176              80             130               0                 Open   ;
 WP1300               WJ1069               WJ1070                  115.28777728              80             130               0                 Open   ;
 WP1301               WJ1069               WJ1071                  183.16106823              80             130               0                 Open   ;
 WP1302               WJ1070               WJ1251                    22.9977741              80             130               0                 Open   ;
 WP1303               WJ1070               WJ1272                  138.13971795              80             130               0                 Open   ;
 WP1304               WJ1074               WJ1075                  9.4046830563              80             130               0                 Open   ;
 WP1305               WJ1074               WJ1319                  11.912506309             125             130               0                 Open   ;
 WP1306               WJ1076               WJ1213                  110.23708164              80             130               0                 Open   ;
 WP1307               WJ1083               WJ1296                  58.587515842              80             130               0                 Open   ;
 WP1308               WJ1084               WJ1085                  259.68289826              80             130               0                 Open   ;
 WP1309               WJ1085               WJ1133                  29.695603088              80             130               0                 Open   ;
 WP1310               WJ1086               WJ1087                  138.01663336              80             130               0                 Open   ;
 WP1311               WJ1086               WJ1088                   85.38467579              80             130               0                 Open   ;
 WP1312               WJ1087               WJ1179                  323.02360994              80             130               0                 Open   ;
 WP1313               WJ1089               WJ1090                  1407.8692054              80             130               0                 Open   ;
 WP1314               WJ1090               WJ1245                  24.470471451              80             130               0                 Open   ;
 WP1315               WJ1096               WJ1097                  116.31259804              80             130               0                 Open   ;
 WP1316               WJ1097               WJ1129                  201.86774107              80             130               0                 Open   ;
 WP1317               WJ1098               WJ1099                  178.99566226              80             130               0                 Open   ;
 WP1318               WJ1098               WJ1100                  114.41538079              80             130               0                 Open   ;
 WP1319               WJ1099               WJ1286                  9.3639292571              80             130               0                 Open   ;
 WP1320               WJ1101               WJ1102                  164.90892035              80             130               0                 Open   ;
 WP1321               WJ1101               WJ1103                  231.48934814              80             130               0                 Open   ;
 WP1322               WJ1102               WJ1164                  831.85476962              80             130               0                 Open   ;
 WP1323               WJ1102               WJ1196                  118.94723689              80             130               0                 Open   ;
 WP1324               WJ1104               WJ1105                  20.776691649              80             130               0                 Open   ;
 WP1325               WJ1106               WJ1107                  181.19632532              80             130               0                 Open   ;
 WP1326               WJ1108               WJ1109                  267.99797137              80             130               0                 Open   ;
 WP1327               WJ1113               WJ1114                  170.24116659             125             130               0                 Open   ;
 WP1328               WJ1115               WJ1116                  154.30212404              80             130               0                 Open   ;
 WP1329               WJ1115               WJ1117                  93.383398471              80             130               0                 Open   ;
 WP1330               WJ1115               WJ1118                  38.321670523              80             130               0                 Open   ;
 WP1331               WJ1116               WJ1228                  237.59884731             125             130               0                 Open   ;
 WP1332               WJ1116               WJ1290                   56.41690717             125             130               0                 Open   ;
 WP1333               WJ1117               WJ1164                  258.57866196              80             130               0                 Open   ;
 WP1334               WJ1117               WJ1280                  93.770276076              80             130               0                 Open   ;
 WP1335               WJ1120               WJ1121                  43.101327278              80             130               0                 Open   ;
 WP1336               WJ1122               WJ1133                  1329.4023405             200             130               0                 Open   ;
 WP1337               WJ1123               WJ1124                  65.229825583             150             130               0                 Open   ;
 WP1338               WJ1124               WJ1270                  79.919770593              80             130               0                 Open   ;
 WP1339               WJ1132               WJ1347                  257.24053108              80             130               0                 Open   ;
 WP1340               WJ1136               WJ1137                  420.58959248              80             130               0                 Open   ;
 WP1341               WJ1137               WJ1142                  115.49567134              80             130               0                 Open   ;
 WP1342               WJ1137               WJ1144                  8.7931627038              80             130               0                 Open   ;
 WP1343               WJ1139               WJ1140                  109.56254422              80             130               0                 Open   ;
 WP1344               WJ1139               WJ1141                  146.28596955              80             130               0                 Open   ;
 WP1345               WJ1141               WJ1194                  88.012405225              80             130               0                 Open   ;
 WP1346               WJ1141               WJ1224                  183.44134088              80             130               0                 Open   ;
 WP1347               WJ1142               WJ1143                  251.41367174              80             130               0                 Open   ;
 WP1348               WJ1142               WJ1144                  120.12099623              80             130               0                 Open   ;
 WP1349               WJ1143               WJ1307                  223.80387819              80             130               0                 Open   ;
 WP1350               WJ1145               WJ1226                  290.45327161              80             130               0                 Open   ;
 WP1351               WJ1148               WJ1149                  67.058437209              80             130               0                 Open   ;
 WP1352               WJ1150               WJ1151                  255.74762077              80             130               0                 Open   ;
 WP1353               WJ1152               WJ1343                  12.430907322              80             130               0                 Open   ;
 WP1354               WJ1155               WJ1156                  201.64925652              80             130               0                 Open   ;
 WP1355               WJ1155               WJ1157                  45.642603092              80             130               0                 Open   ;
 WP1356               WJ1155               WJ1158                   136.4197266              80             130               0                 Open   ;
 WP1357               WJ1160               WJ1161                  90.019881037              80             130               0                 Open   ;
 WP1358               WJ1160               WJ1162                  37.874872062              80             130               0                 Open   ;
 WP1359               WJ1162               WJ1284                  152.77385978              80             130               0                 Open   ;
 WP1360               WJ1173               WJ1188                  158.05671749              80             130               0                 Open   ;
 WP1361               WJ1173               WJ1262                  154.35478581              80             130               0                 Open   ;
 WP1362               WJ1176               WJ1250                  111.53252639              80             130               0                 Open   ;
 WP1363               WJ1181               WJ1182                  100.50533848              80             130               0                 Open   ;
 WP1364               WJ1181               WJ1183                  69.065869284              80             130               0                 Open   ;
 WP1365               WJ1182               WJ1223                  76.008042577              80             130               0                 Open   ;
 WP1366               WJ1182               WJ1183                  167.55041237              80             130               0                 Open   ;
 WP1367               WJ1183               WJ1329                  174.65499173              80             130               0                 Open   ;
 WP1368               WJ1184               WJ1185                  51.184224498              80             130               0                 Open   ;
 WP1369               WJ1187               WJ1241                  17.422598886             250             130               0                 Open   ;
 WP1370               WJ1190               WJ1191                  191.49203093              80             130               0                 Open   ;
 WP1371               WJ1191               WJ1316                  51.735918693              80             130               0                 Open   ;
 WP1372               WJ1192               WJ1193                  92.159788564              80             130               0                 Open   ;
 WP1373               WJ1195               WJ1196                  91.240613128              80             130               0                 Open   ;
 WP1374               WJ1200               WJ1201                  52.319716269              80             130               0                 Open   ;
 WP1375               WJ1200               WJ1202                  17.563827325              80             130               0                 Open   ;
 WP1376               WJ1201               WJ1276                  87.116687559              80             130               0                 Open   ;
 WP1377               WJ1202               WJ1239                  66.128522449              80             130               0                 Open   ;
 WP1378               WJ1202               WJ1285                  187.06099708              80             130               0                 Open   ;
 WP1379               WJ1209               WJ1210                  11.264325707              80             130               0                 Open   ;
 WP1380               WJ1210               WJ1247                  32.645434124              80             130               0                 Open   ;
 WP1381               WJ1213               WJ1265                  62.212066928              80             130               0                 Open   ;
 WP1382               WJ1214               WJ1215                  11.925835508              80             130               0                 Open   ;
 WP1383               WJ1226               WJ1312                  113.05972741              80             130               0                 Open   ;
 WP1384               WJ1226               WJ1337                  35.226778627              80             130               0                 Open   ;
 WP1385               WJ1228               WJ1279                  43.931162233              80             130               0                 Open   ;
 WP1386               WJ1235               WJ1236                  103.47592611              80             130               0                 Open   ;
 WP1387               WJ1236               WJ1249                  137.94650153              80             130               0                 Open   ;
 WP1388               WJ1237               WJ1264                  591.48746027              80             130               0                 Open   ;
 WP1389               WJ1248               WJ1338                  172.17700662              80             130               0                 Open   ;
 WP1390               WJ1249               WJ1314                  205.65844998              80             130               0                 Open   ;
 WP1391               WJ1249               WJ1325                  96.450432067              80             130               0                 Open   ;
 WP1392               WJ1253               WJ1254                  170.81575149              80             130               0                 Open   ;
 WP1393               WJ1257               WJ1258                  381.00615974              80             130               0                 Open   ;
 WP1394               WJ1258               WJ1321                  404.17938961              80             130               0                 Open   ;
 WP1395               WJ1258               WJ1323                  22.811366558              80             130               0                 Open   ;
 WP1396               WJ1265               WJ1300                  60.176424137              80             130               0                 Open   ;
 WP1397               WJ1281               WJ1305                  279.70941631              80             130               0                 Open   ;
 WP1398               WJ1281               WJ1332                  272.13128604              80             130               0                 Open   ;
 WP1399               WJ1283               WJ1284                  41.402128906              80             130               0                 Open   ;
 WP1400               WJ1284               WJ1341                  131.60790745              80             130               0                 Open   ;
 WP1401               WJ1290               WJ1291                  104.86850992              80             130               0                 Open   ;
 WP1402               WJ1294               WJ1295                  182.29179619              80             130               0                 Open   ;
 WP1403               WJ1301               WJ1302                  105.69265481              80             130               0                 Open   ;
 WP1404               WJ1306               WJ1307                  970.31307791              80             130               0                 Open   ;
 WP1405               WJ1323               WJ1327                  127.72621208              80             130               0                 Open   ;
 WP1406               WJ1323               WJ1342                  194.23725572              80             130               0                 Open   ;
 WP1407               WJ1327               WJ1328                  321.90948459              80             130               0                 Open   ;
 WP1408               WJ1339               WJ1340                  95.578724159              80             130               0                 Open   ;

[PUMPS]
;ID                   Node1                Node2                Properties          
 WAT_MAIN_PUMP        WAT_RAW_SOURCE       WJ1006               HEAD     WAT_MAIN_CURVE       SPEED      0.71255102479   ;

[VALVES]
;ID                   Node1                Node2                            Diameter Type              Setting           Minor Loss

[TAGS]
;type      name       tag       

[DEMANDS]
;ID        Demand     Pattern   

[STATUS]
;ID        Setting   

[PATTERNS]
;ID        Multipliers

[CURVES]
;ID         X-Value      Y-Value     
;PUMP: WAT_MAIN_CURVE
 WAT_MAIN_CURVE     0.000000   126.252146   ;
 WAT_MAIN_CURVE   130.010147   105.210122   ;
 WAT_MAIN_CURVE   195.015221    57.865567   ;


[CONTROLS]

[RULES]

[ENERGY]
GLOBAL PRICE           0.0000

[EMITTERS]
;ID        Flow coefficient

[QUALITY]

[SOURCES]
;Node      Type       Quality    Pattern   

[REACTIONS]
;Type           Pipe/Tank               Coefficient

 ORDER BULK 1
 ORDER TANK 1
 ORDER WALL 1
 GLOBAL BULK 0.0000    
 GLOBAL WALL 0.0000    

[MIXING]
;Tank ID             Model Fraction

[TIMES]
DURATION             00:00:00
HYDRAULIC TIMESTEP   01:00:00
QUALITY TIMESTEP     00:06:00
PATTERN TIMESTEP     01:00:00
PATTERN START        00:00:00
REPORT TIMESTEP      01:00:00
REPORT START         00:00:00
START CLOCKTIME      00:00:00 AM
RULE TIMESTEP        00:06:00
STATISTIC            NONE      

[REPORT]

[OPTIONS]
UNITS                LPS                 
HEADLOSS             H-W                 
SPECIFIC GRAVITY     1
VISCOSITY            1
TRIALS               200
ACCURACY             0.001
CHECKFREQ            2
MAXCHECK             10
UNBALANCED           STOP                
PATTERN              1                   
DEMAND MULTIPLIER    1
DEMAND MODEL         PDA
MINIMUM PRESSURE     0.00
REQUIRED PRESSURE    20.00
PRESSURE EXPONENT    0.5
EMITTER EXPONENT     0.5
QUALITY              NONE                
DIFFUSIVITY          1
TOLERANCE            0.01

[COORDINATES]
;Node      X-Coord    Y-Coord   
WJ0001             10.216167300         50.038720800
WJ0002             10.218424600         50.037376600
WJ0003             10.215883400         50.038085200
WJ0004             10.211690900         50.041456000
WJ0005             10.239247200         50.045491700
WJ0006             10.237877900         50.044264700
WJ0007             10.238434500         50.046376700
WJ0008             10.239419300         50.045510100
WJ0009             10.245449200         50.052940600
WJ0010             10.245470300         50.051909900
WJ0011             10.245410700         50.053547000
WJ0012             10.244055600         50.053250700
WJ0013             10.165064500         50.065675500
WJ0014             10.164425300         50.065213300
WJ0015             10.235399600         50.058313100
WJ0016             10.233643500         50.057678400
WJ0017             10.235231300         50.059639400
WJ0018             10.210524900         50.052529000
WJ0019             10.213098100         50.052059100
WJ0020             10.208647800         50.052858600
WJ0021             10.233046400         50.057090700
WJ0022             10.233636900         50.059684600
WJ0023             10.195045300         50.038121000
WJ0024             10.195395600         50.038298200
WJ0025             10.196242600         50.037054300
WJ0026             10.291850800         50.059641100
WJ0027             10.291443500         50.059161900
WJ0028             10.195860000         50.061910100
WJ0029             10.194241200         50.057215000
WJ0030             10.273142000         50.040768600
WJ0031             10.270829800         50.040689300
WJ0032             10.274149300         50.040800100
WJ0033             10.232633900         50.056387200
WJ0034             10.233292700         50.053600200
WJ0035             10.233085900         50.056492000
WJ0036             10.232514800         50.058652600
WJ0037             10.234870600         50.071694200
WJ0038             10.234173900         50.069617600
WJ0039             10.254498800         50.053079900
WJ0040             10.250931900         50.051298200
WJ0041             10.256313400         50.054126800
WJ0042             10.266124700         50.026866900
WJ0043             10.266785400         50.025758600
WJ0044             10.265656200         50.026882200
WJ0045             10.265702500         50.027456800
WJ0046             10.223736800         50.064064700
WJ0047             10.225636200         50.063010400
WJ0048             10.169196600         50.065992900
WJ0049             10.174369100         50.063301500
WJ0050             10.259551600         50.035800200
WJ0051             10.258630900         50.036143700
WJ0052             10.188372100         50.059326000
WJ0053             10.188078300         50.058751000
WJ0054             10.188712100         50.060026200
WJ0055             10.189213000         50.059296800
WJ0056             10.209996500         50.039127300
WJ0057             10.211731400         50.038802400
WJ0058             10.262336000         50.036007200
WJ0059             10.262276600         50.036160100
WJ0060             10.261777800         50.035602600
WJ0061             10.262784600         50.035685200
WJ0062             10.199820200         50.050943200
WJ0063             10.201503500         50.050276500
WJ0064             10.193517700         50.054865900
WJ0065             10.199699500         50.050862000
WJ0066             10.199790800         50.050824800
WJ0067             10.210351000         50.057015200
WJ0068             10.211828500         50.057259600
WJ0069             10.201024900         50.047987600
WJ0070             10.206719100         50.046206900
WJ0071             10.199857700         50.047755500
WJ0072             10.199695300         50.048037600
WJ0073             10.260321200         50.039967000
WJ0074             10.257494300         50.038865800
WJ0075             10.212594400         50.043616700
WJ0076             10.218124700         50.043701200
WJ0077             10.199830500         50.045629500
WJ0078             10.209682300         50.042369600
WJ0079             10.224739600         50.050156400
WJ0080             10.226009700         50.048072600
WJ0081             10.233007300         50.050975100
WJ0082             10.233693900         50.050642700
WJ0083             10.231701500         50.051721900
WJ0084             10.232961900         50.050936100
WJ0085             10.219686300         50.063969400
WJ0086             10.219433300         50.063321600
WJ0087             10.220236600         50.064468500
WJ0088             10.218971300         50.064213500
WJ0089             10.193742400         50.063891500
WJ0090             10.192785300         50.063889400
WJ0091             10.229392800         50.040542000
WJ0092             10.228830700         50.041131100
WJ0093             10.239912400         50.040612700
WJ0094             10.240601500         50.040993700
WJ0095             10.240081700         50.039018200
WJ0096             10.239492600         50.041143900
WJ0097             10.256058700         50.068573000
WJ0098             10.256038100         50.067993400
WJ0099             10.255586600         50.069601600
WJ0100             10.221020000         50.037891300
WJ0101             10.223898900         50.038443900
WJ0102             10.219505100         50.039408200
WJ0103             10.231357000         50.064038000
WJ0104             10.231720800         50.062656500
WJ0105             10.231176000         50.064533600
WJ0106             10.211976800         50.059204200
WJ0107             10.214663500         50.058272900
WJ0108             10.211510800         50.059337100
WJ0109             10.212358100         50.059952300
WJ0110             10.267094900         50.025282400
WJ0111             10.267156700         50.025235400
WJ0112             10.261032400         50.024200600
WJ0113             10.216891600         50.053248700
WJ0114             10.216723200         50.053434200
WJ0115             10.233015500         50.042956100
WJ0116             10.233560500         50.042651400
WJ0117             10.231406300         50.043594400
WJ0118             10.229588500         50.041666400
WJ0119             10.257242100         50.025280800
WJ0120             10.263153600         50.028153800
WJ0121             10.186791500         50.061748500
WJ0122             10.186738000         50.061023500
WJ0123             10.186804300         50.062615100
WJ0124             10.184363600         50.061724300
WJ0125             10.236423600         50.056001500
WJ0126             10.233903700         50.056608800
WJ0127             10.233736000         50.055803200
WJ0128             10.246057800         50.055240100
WJ0129             10.246117000         50.055572300
WJ0130             10.246691600         50.054281200
WJ0131             10.239361700         50.052303600
WJ0132             10.238605900         50.051642800
WJ0133             10.239787100         50.052418100
WJ0134             10.196915400         50.038358100
WJ0135             10.196004300         50.037866400
WJ0136             10.183803100         50.062710100
WJ0137             10.183001400         50.062660500
WJ0138             10.223444600         50.042436100
WJ0139             10.223678100         50.042558600
WJ0140             10.254948600         50.066893100
WJ0141             10.252846900         50.066504800
WJ0142             10.255379500         50.067123500
WJ0143             10.216573900         50.020707100
WJ0144             10.217311000         50.021581600
WJ0145             10.215245500         50.018111400
WJ0146             10.215252000         50.064199200
WJ0147             10.216582900         50.062945800
WJ0148             10.214649200         50.065022600
WJ0149             10.215587500         50.064359700
WJ0150             10.241428800         50.046326700
WJ0151             10.240881600         50.046085100
WJ0152             10.243186300         50.047079900
WJ0153             10.240630700         50.047102400
WJ0154             10.211719600         50.011995800
WJ0155             10.214224900         50.013527600
WJ0156             10.234098000         50.047163500
WJ0157             10.232902700         50.047154200
WJ0158             10.225901000         50.040850900
WJ0159             10.228105600         50.040605600
WJ0160             10.223415500         50.039531400
WJ0161             10.225448700         50.041203800
WJ0162             10.220230400         50.080955700
WJ0163             10.219186900         50.081093400
WJ0164             10.260680600         50.039092300
WJ0165             10.260336200         50.038617400
WJ0166             10.222560500         50.050888600
WJ0167             10.223496800         50.051557800
WJ0168             10.265376600         50.041223700
WJ0169             10.263174400         50.042047400
WJ0170             10.268550700         50.040619600
WJ0171             10.267998400         50.042143800
WJ0172             10.230959800         50.045102400
WJ0173             10.230914000         50.045510600
WJ0174             10.230760100         50.049001700
WJ0175             10.231876100         50.049847000
WJ0176             10.229567000         50.049214400
WJ0177             10.228692000         50.050018700
WJ0178             10.271496400         50.025027300
WJ0179             10.270868800         50.024816700
WJ0180             10.274959500         50.023706200
WJ0181             10.272746800         50.024896900
WJ0182             10.238594500         50.014553600
WJ0183             10.238825600         50.014711900
WJ0184             10.245134500         50.004811300
WJ0185             10.231536400         50.014817800
WJ0186             10.225319700         50.062689100
WJ0187             10.225609900         50.061832800
WJ0188             10.225146700         50.062752700
WJ0189             10.240161900         50.038395000
WJ0190             10.238607600         50.037976400
WJ0191             10.220130800         50.063068700
WJ0192             10.220284600         50.063112000
WJ0193             10.221429100         50.062422800
WJ0194             10.233581400         50.034667700
WJ0195             10.233797800         50.036339800
WJ0196             10.233265700         50.034072900
WJ0197             10.233106100         50.034089900
WJ0198             10.192786200         50.063859700
WJ0199             10.193165400         50.065129800
WJ0200             10.223106000         50.075981700
WJ0201             10.223726600         50.074440100
WJ0202             10.222363800         50.077706500
WJ0203             10.215847900         50.072153500
WJ0204             10.215648500         50.071750800
WJ0205             10.158896900         50.067478700
WJ0206             10.161881000         50.066993400
WJ0207             10.156167800         50.067529500
WJ0208             10.208329600         50.016074200
WJ0209             10.214517400         50.016504100
WJ0210             10.223621700         50.071743400
WJ0211             10.224330200         50.071806200
WJ0212             10.247228200         50.049474200
WJ0213             10.245819700         50.049037400
WJ0214             10.248053500         50.049716200
WJ0215             10.246644400         50.049911900
WJ0216             10.262638800         50.041974200
WJ0217             10.261722700         50.042258600
WJ0218             10.263216900         50.041511100
WJ0219             10.288063700         50.057404700
WJ0220             10.287932000         50.057236100
WJ0221             10.289561300         50.058185800
WJ0222             10.288538000         50.057817300
WJ0223             10.161119400         50.068670900
WJ0224             10.161178900         50.067404200
WJ0225             10.233614600         50.023191300
WJ0226             10.233488400         50.023349900
WJ0227             10.233830500         50.023210300
WJ0228             10.233439400         50.023164300
WJ0229             10.275821100         50.022715600
WJ0230             10.275333300         50.022546900
WJ0231             10.276832200         50.022916400
WJ0232             10.275413000         50.023220500
WJ0233             10.267979200         50.005039100
WJ0234             10.272937300         50.018840500
WJ0235             10.233260800         50.023126600
WJ0236             10.233683600         50.052878300
WJ0237             10.234403000         50.052037200
WJ0238             10.221346900         50.037005600
WJ0239             10.221453300         50.037146900
WJ0240             10.218751800         50.032006100
WJ0241             10.215852000         50.034312000
WJ0242             10.247946200         50.050997000
WJ0243             10.246621000         50.050087700
WJ0244             10.249189100         50.051408400
WJ0245             10.248900900         50.052897100
WJ0246             10.279543700         50.022671500
WJ0247             10.279453200         50.022756400
WJ0248             10.280679100         50.022009400
WJ0249             10.284506700         50.046109400
WJ0250             10.283989700         50.046083800
WJ0251             10.290013200         50.043777400
WJ0252             10.284531500         50.046959700
WJ0253             10.240302500         50.080893800
WJ0254             10.239213200         50.077912300
WJ0255             10.244047300         50.084933800
WJ0256             10.219091000         50.044546700
WJ0257             10.221732100         50.044357200
WJ0258             10.215793500         50.045281400
WJ0259             10.202915700         50.055406200
WJ0260             10.200790500         50.054456400
WJ0261             10.202726200         50.057527100
WJ0262             10.245619700         50.055510200
WJ0263             10.234094200         50.072298500
WJ0264             10.233268500         50.070957600
WJ0265             10.189930200         50.057459900
WJ0266             10.169445700         50.062297300
WJ0267             10.165194000         50.050401700
WJ0268             10.168019700         50.055084500
WJ0269             10.211073900         50.059434100
WJ0270             10.208120600         50.059635800
WJ0271             10.242140000         50.042086500
WJ0272             10.245439300         50.044844300
WJ0273             10.214317800         50.014576500
WJ0274             10.265856000         50.020194900
WJ0275             10.269883300         50.020983600
WJ0276             10.253764000         50.071589600
WJ0277             10.254109100         50.071346200
WJ0278             10.252751200         50.072040700
WJ0279             10.242506500         50.053978200
WJ0280             10.240883900         50.054865000
WJ0281             10.197160400         50.053000800
WJ0282             10.197928600         50.054445000
WJ0283             10.181986200         50.052069100
WJ0284             10.179397000         50.052151800
WJ0285             10.201570100         50.040544000
WJ0286             10.200892100         50.041081700
WJ0287             10.217882400         50.017920600
WJ0288             10.215390100         50.018087900
WJ0289             10.215484100         50.048588100
WJ0290             10.220817800         50.048306600
WJ0291             10.243054500         50.036928300
WJ0292             10.243868600         50.036748800
WJ0293             10.228310400         50.026227500
WJ0294             10.226413600         50.027425900
WJ0295             10.230235100         50.025520100
WJ0296             10.224540900         50.023749800
WJ0297             10.221126500         50.018589500
WJ0298             10.216557800         50.020121000
WJ0299             10.212367300         50.068470900
WJ0300             10.211568000         50.067257700
WJ0301             10.211232000         50.069028000
WJ0302             10.213807700         50.069611300
WJ0303             10.212577800         50.068441200
WJ0304             10.217510600         50.030174300
WJ0305             10.215348300         50.029769000
WJ0306             10.214537100         50.026805200
WJ0307             10.287041700         50.056846500
WJ0308             10.286326300         50.056715300
WJ0309             10.288181600         50.057077800
WJ0310             10.287282400         50.057138300
WJ0311             10.229282600         50.030824900
WJ0312             10.229683100         50.031303500
WJ0313             10.229095200         50.030617400
WJ0314             10.227766400         50.031187600
WJ0315             10.233959500         50.032426900
WJ0316             10.232577000         50.033347800
WJ0317             10.174474600         50.054218300
WJ0318             10.174186100         50.054238100
WJ0319             10.218580200         50.049634900
WJ0320             10.220026800         50.049421700
WJ0321             10.217749100         50.050194400
WJ0322             10.217497400         50.049645700
WJ0323             10.185117100         50.063167600
WJ0324             10.185825400         50.062516300
WJ0325             10.185132000         50.064283200
WJ0326             10.284202100         50.045811000
WJ0327             10.235219300         50.057233200
WJ0328             10.237329600         50.057675900
WJ0329             10.261199700         50.037205500
WJ0330             10.257233200         50.037595500
WJ0331             10.248321500         50.064301700
WJ0332             10.249952000         50.064158800
WJ0333             10.217475000         50.050290100
WJ0334             10.218682800         50.050657100
WJ0335             10.245026900         50.047747900
WJ0336             10.245138400         50.048306200
WJ0337             10.245971500         50.048459100
WJ0338             10.240858400         50.061238400
WJ0339             10.241215100         50.060298600
WJ0340             10.240927600         50.061945000
WJ0341             10.239923200         50.061190300
WJ0342             10.215222000         50.059119800
WJ0343             10.217525300         50.058720400
WJ0344             10.213133900         50.059770400
WJ0345             10.248762200         50.032736400
WJ0346             10.247708100         50.033553300
WJ0347             10.249217500         50.031970100
WJ0348             10.249649800         50.032881600
WJ0349             10.195215700         50.037415200
WJ0350             10.196817100         50.037269500
WJ0351             10.249496500         50.031694900
WJ0352             10.251124500         50.031607800
WJ0353             10.250049100         50.059599600
WJ0354             10.249600800         50.059976100
WJ0355             10.236798300         50.044744400
WJ0356             10.236756300         50.044716100
WJ0357             10.236749200         50.045361100
WJ0358             10.237272200         50.044561400
WJ0359             10.237619300         50.061247800
WJ0360             10.218610700         50.074099800
WJ0361             10.219576900         50.072859000
WJ0362             10.229519500         50.067499000
WJ0363             10.229610100         50.067213200
WJ0364             10.229475000         50.067829600
WJ0365             10.229826500         50.067259700
WJ0366             10.258046800         50.066909200
WJ0367             10.257504600         50.066072400
WJ0368             10.229904900         50.031515200
WJ0369             10.255744100         50.059774400
WJ0370             10.254387100         50.059023300
WJ0371             10.260263400         50.063042300
WJ0372             10.219268200         50.058294000
WJ0373             10.220916800         50.058055500
WJ0374             10.188830800         50.060257900
WJ0375             10.188898300         50.060436900
WJ0376             10.230243000         50.053879700
WJ0377             10.230673300         50.052313600
WJ0378             10.229677300         50.055016800
WJ0379             10.230806100         50.056211200
WJ0380             10.214520700         50.055224500
WJ0381             10.212411700         50.055908800
WJ0382             10.224736900         50.046329500
WJ0383             10.226036600         50.046339200
WJ0384             10.224277200         50.046073100
WJ0385             10.225209700         50.046712400
WJ0386             10.227500200         50.055632800
WJ0387             10.229938900         50.055618500
WJ0388             10.225637300         50.056982200
WJ0389             10.195919300         50.047564200
WJ0390             10.197108800         50.047570800
WJ0391             10.195421300         50.047122200
WJ0392             10.195779100         50.048695500
WJ0393             10.214359900         50.027028200
WJ0394             10.210517500         50.025287700
WJ0395             10.219639600         50.077707900
WJ0396             10.220410000         50.076448500
WJ0397             10.206452400         50.040316500
WJ0398             10.208361000         50.038949400
WJ0399             10.206117700         50.040122000
WJ0400             10.206540900         50.040388700
WJ0401             10.178491300         50.061216500
WJ0402             10.178149400         50.060898100
WJ0403             10.283887400         50.024790500
WJ0404             10.283902600         50.024643700
WJ0405             10.199237900         50.041650800
WJ0406             10.199176300         50.041566800
WJ0407             10.242740100         50.034650100
WJ0408             10.243794000         50.036604700
WJ0409             10.243475500         50.032147000
WJ0410             10.244374900         50.034539600
WJ0411             10.247161500         50.033781500
WJ0412             10.279073500         50.018495500
WJ0413             10.279305500         50.018451900
WJ0414             10.232775700         50.047336600
WJ0415             10.279387600         50.022793100
WJ0416             10.281692800         50.023279700
WJ0417             10.246031600         50.050895600
WJ0418             10.218689300         50.014566400
WJ0419             10.214421800         50.014126900
WJ0420             10.282158000         50.020662600
WJ0421             10.282066700         50.020768300
WJ0422             10.282591700         50.020791000
WJ0423             10.282791200         50.019931500
WJ0424             10.203285700         50.008074900
WJ0425             10.214530600         50.008637400
WJ0426             10.176809100         50.061879000
WJ0427             10.176705900         50.061975900
WJ0428             10.279710800         50.024195800
WJ0429             10.182200500         50.059754600
WJ0430             10.236963000         50.070869600
WJ0431             10.236526900         50.069767200
WJ0432             10.211092500         50.036702500
WJ0433             10.212255500         50.036027200
WJ0434             10.210959000         50.036641800
WJ0435             10.209784500         50.037944100
WJ0436             10.208143200         50.034724800
WJ0437             10.213142200         50.036118400
WJ0438             10.207670100         50.035168000
WJ0439             10.204994700         50.034483100
WJ0440             10.236854300         50.043744400
WJ0441             10.237885700         50.047972000
WJ0442             10.267861500         50.044221500
WJ0443             10.267239900         50.043200900
WJ0444             10.269048100         50.045538600
WJ0445             10.203854800         50.049561800
WJ0446             10.212425600         50.048044300
WJ0447             10.203900800         50.049656700
WJ0448             10.208097900         50.047876700
WJ0449             10.204780300         50.048441500
WJ0450             10.179943600         50.062201700
WJ0451             10.180853500         50.061107300
WJ0452             10.179615900         50.063014200
WJ0453             10.230201200         50.045567100
WJ0454             10.231008400         50.046035700
WJ0455             10.233016000         50.045512700
WJ0456             10.174595100         50.062704900
WJ0457             10.268648800         50.056365400
WJ0458             10.266399200         50.055852900
WJ0459             10.271050500         50.056802100
WJ0460             10.174721900         50.055124900
WJ0461             10.173607800         50.053281000
WJ0462             10.168274400         50.054387200
WJ0463             10.264134000         50.038956600
WJ0464             10.262823600         50.038921200
WJ0465             10.265140300         50.040218900
WJ0466             10.264257300         50.038454000
WJ0467             10.181009500         50.065191800
WJ0468             10.182202600         50.065212600
WJ0469             10.176760400         50.066215200
WJ0470             10.217581100         50.032481300
WJ0471             10.218567800         50.033332700
WJ0472             10.217185500         50.032233300
WJ0473             10.198240500         50.023446000
WJ0474             10.198450500         50.023693600
WJ0475             10.190788800         50.063822100
WJ0476             10.191223500         50.062820600
WJ0477             10.267626100         50.024422700
WJ0478             10.267577400         50.025047000
WJ0479             10.267365000         50.021414800
WJ0480             10.268716000         50.022721400
WJ0481             10.254802600         50.037130000
WJ0482             10.257268300         50.038252400
WJ0483             10.205271500         50.053917500
WJ0484             10.206673600         50.053205300
WJ0485             10.222259800         50.059174500
WJ0486             10.222538700         50.059251400
WJ0487             10.190280200         50.064600700
WJ0488             10.189440500         50.064413700
WJ0489             10.287870100         50.026504300
WJ0490             10.286220500         50.026508500
WJ0491             10.278312300         50.019940900
WJ0492             10.277695800         50.020709700
WJ0493             10.278539100         50.019695800
WJ0494             10.291333600         50.058984100
WJ0495             10.292479500         50.060456200
WJ0496             10.244584800         50.085470900
WJ0497             10.254938600         50.071748400
WJ0498             10.255365600         50.073586300
WJ0499             10.255386600         50.071492200
WJ0500             10.198317200         50.036200300
WJ0501             10.199455900         50.035693400
WJ0502             10.197707300         50.035931200
WJ0503             10.200863500         50.037500700
WJ0504             10.201634900         50.036844800
WJ0505             10.199717000         50.037718500
WJ0506             10.200848100         50.038055800
WJ0507             10.213947400         50.066653500
WJ0508             10.172330000         50.055745400
WJ0509             10.189454400         50.063791300
WJ0510             10.189459500         50.065904700
WJ0511             10.188594900         50.064379900
WJ0512             10.293360900         50.059934900
WJ0513             10.291085700         50.058254100
WJ0514             10.228539900         50.053800300
WJ0515             10.228671800         50.053329900
WJ0516             10.226851100         50.032345100
WJ0517             10.283463200         50.019330000
WJ0518             10.281877100         50.019769900
WJ0519             10.270679000         50.046465700
WJ0520             10.271188700         50.046619000
WJ0521             10.271826800         50.045132000
WJ0522             10.247998300         50.060555600
WJ0523             10.247476200         50.060028600
WJ0524             10.250990200         50.062129700
WJ0525             10.241922100         50.027945900
WJ0526             10.241616700         50.023308800
WJ0527             10.253700700         50.037503400
WJ0528             10.252851700         50.037189400
WJ0529             10.254453100         50.037818900
WJ0530             10.253286800         50.037914500
WJ0531             10.222305700         50.057852000
WJ0532             10.220974100         50.058392200
WJ0533             10.191383300         50.061314600
WJ0534             10.190834300         50.060685600
WJ0535             10.189381700         50.061381000
WJ0536             10.230721000         50.083392700
WJ0537             10.230326400         50.082285600
WJ0538             10.230743400         50.083452000
WJ0539             10.231083600         50.083341000
WJ0540             10.227417200         50.028578500
WJ0541             10.228457600         50.029705700
WJ0542             10.227071100         50.028190000
WJ0543             10.230357600         50.027263200
WJ0544             10.227297300         50.028624400
WJ0545             10.277462800         50.025278200
WJ0546             10.277617600         50.025047500
WJ0547             10.203077500         50.057311800
WJ0548             10.203610600         50.053674800
WJ0549             10.261084100         50.066107400
WJ0550             10.261163600         50.064125200
WJ0551             10.208491800         50.038867900
WJ0552             10.208445300         50.039046300
WJ0553             10.281547500         50.021172700
WJ0554             10.285582900         50.021061100
WJ0555             10.204618800         50.013598600
WJ0556             10.204829000         50.015379500
WJ0557             10.188438100         50.063309100
WJ0558             10.189441600         50.063308900
WJ0559             10.179176600         50.053198400
WJ0560             10.178003700         50.047980900
WJ0561             10.177782000         50.054070000
WJ0562             10.178311900         50.053741500
WJ0563             10.177267000         50.054302800
WJ0564             10.178307100         50.055320000
WJ0565             10.213373200         50.037679200
WJ0566             10.173900400         50.064326600
WJ0567             10.222992900         50.057166700
WJ0568             10.226405500         50.054660900
WJ0569             10.221974900         50.056904700
WJ0570             10.235806100         50.049398100
WJ0571             10.235664100         50.049520300
WJ0572             10.196051400         50.024145400
WJ0573             10.197043700         50.024980600
WJ0574             10.195084600         50.023187600
WJ0575             10.194953500         50.023248100
WJ0576             10.221110900         50.054790800
WJ0577             10.223791000         50.052796400
WJ0578             10.196747200         50.037312800
WJ0579             10.209955300         50.036305800
WJ0580             10.209671600         50.037880800
WJ0581             10.214772900         50.072580600
WJ0582             10.214387400         50.072025900
WJ0583             10.217302700         50.042287200
WJ0584             10.217090500         50.041397400
WJ0585             10.211861100         50.060021500
WJ0586             10.256435400         50.074356900
WJ0587             10.255723000         50.074223600
WJ0588             10.232383700         50.022112900
WJ0589             10.223209300         50.020738300
WJ0590             10.285293200         50.026194300
WJ0591             10.286504100         50.027301200
WJ0592             10.233765000         50.049953700
WJ0593             10.236184800         50.045813500
WJ0594             10.160131200         50.072113900
WJ0595             10.160855300         50.068580700
WJ0596             10.225414900         50.042893300
WJ0597             10.225862000         50.043144000
WJ0598             10.224276500         50.043753000
WJ0599             10.224164200         50.042197700
WJ0600             10.189409700         50.061777100
WJ0601             10.189425800         50.062576300
WJ0602             10.239339900         50.076435100
WJ0603             10.239820300         50.076537200
WJ0604             10.219526200         50.046192300
WJ0605             10.221694700         50.044739600
WJ0606             10.238899200         50.058900200
WJ0607             10.237789400         50.059828600
WJ0608             10.240479700         50.059804900
WJ0609             10.201841200         50.027611700
WJ0610             10.203949100         50.028399300
WJ0611             10.201793300         50.027593900
WJ0612             10.202720200         50.026841900
WJ0613             10.200569800         50.027023100
WJ0614             10.199859700         50.026633700
WJ0615             10.186827600         50.064329100
WJ0616             10.183252600         50.064236500
WJ0617             10.211142300         50.070375100
WJ0618             10.212027600         50.070113500
WJ0619             10.160646300         50.072275700
WJ0620             10.160480200         50.072355600
WJ0621             10.255772200         50.038318300
WJ0622             10.193370100         50.056749800
WJ0623             10.194656600         50.055596500
WJ0624             10.192151700         50.057843200
WJ0625             10.252015900         50.056005800
WJ0626             10.250765400         50.052628900
WJ0627             10.251886700         50.057667500
WJ0628             10.253212000         50.056754900
WJ0629             10.164363500         50.071545200
WJ0630             10.162878500         50.071287700
WJ0631             10.164375900         50.071634000
WJ0632             10.166459600         50.072566000
WJ0633             10.214370300         50.013493400
WJ0634             10.214267700         50.014128900
WJ0635             10.213988500         50.048653100
WJ0636             10.214239200         50.047987100
WJ0637             10.225964000         50.031283800
WJ0638             10.226150200         50.032975000
WJ0639             10.226332600         50.035322500
WJ0640             10.229440400         50.034918000
WJ0641             10.226773500         50.027835200
WJ0642             10.226951100         50.028234500
WJ0643             10.192200000         50.063859700
WJ0644             10.253105500         50.038052700
WJ0645             10.252543800         50.037749100
WJ0646             10.254906500         50.039067200
WJ0647             10.281421100         50.023978900
WJ0648             10.278764900         50.023329000
WJ0649             10.282150200         50.024439500
WJ0650             10.222799800         50.047814300
WJ0651             10.224507100         50.047997400
WJ0652             10.236076000         50.037003800
WJ0653             10.236644700         50.037225800
WJ0654             10.235135300         50.036739100
WJ0655             10.235631000         50.037782700
WJ0656             10.230185700         50.066222700
WJ0657             10.230538800         50.065659000
WJ0658             10.231676500         50.066705500
WJ0659             10.182600300         50.062187700
WJ0660             10.182872000         50.060917900
WJ0661             10.181829000         50.062157800
WJ0662             10.199399700         50.026374900
WJ0663             10.197239800         50.026659600
WJ0664             10.205037900         50.029151000
WJ0665             10.205344500         50.028849700
WJ0666             10.281760800         50.058198900
WJ0667             10.283026100         50.057192100
WJ0668             10.180953600         50.053225200
WJ0669             10.193714300         50.050691800
WJ0670             10.198040000         50.025619000
WJ0671             10.279404700         50.020891100
WJ0672             10.281287600         50.021180300
WJ0673             10.222271200         50.067070100
WJ0674             10.222258600         50.067481400
WJ0675             10.220397100         50.067498200
WJ0676             10.222343800         50.067040800
WJ0677             10.214825100         50.069638800
WJ0678             10.215476500         50.071220300
WJ0679             10.250639400         50.051287500
WJ0680             10.250720000         50.050305500
WJ0681             10.217938700         50.047801400
WJ0682             10.220633700         50.047638400
WJ0683             10.215228500         50.047938400
WJ0684             10.218027000         50.048399600
WJ0685             10.226154500         50.062733000
WJ0686             10.227522300         50.062007500
WJ0687             10.241011100         50.045961200
WJ0688             10.254890400         50.036019500
WJ0689             10.253262200         50.036608300
WJ0690             10.255242300         50.035794200
WJ0691             10.254870100         50.036115300
WJ0692             10.194846700         50.047307300
WJ0693             10.238945300         50.054179100
WJ0694             10.239712300         50.053541900
WJ0695             10.237108400         50.053574100
WJ0696             10.238396400         50.054740600
WJ0697             10.262992700         50.038752500
WJ0698             10.262459300         50.038910100
WJ0699             10.265558400         50.027263200
WJ0700             10.290470800         50.060632700
WJ0701             10.290728200         50.061982700
WJ0702             10.282646200         50.026607900
WJ0703             10.279676100         50.025660100
WJ0704             10.198531700         50.025900300
WJ0705             10.194417900         50.023937100
WJ0706             10.240458100         50.052600000
WJ0707             10.242022500         50.052070300
WJ0708             10.276726200         50.020837100
WJ0709             10.274420600         50.022166100
WJ0710             10.276730100         50.020739900
WJ0711             10.228201400         50.068189200
WJ0712             10.230764500         50.052016600
WJ0713             10.223156200         50.045847800
WJ0714             10.223442800         50.045623300
WJ0715             10.193395400         50.054764600
WJ0716             10.195901200         50.052604000
WJ0717             10.192983000         50.055300000
WJ0718             10.187542600         50.058884800
WJ0719             10.186513500         50.059023800
WJ0720             10.187468400         50.058768300
WJ0721             10.183869800         50.059362900
WJ0722             10.185146700         50.059183500
WJ0723             10.209303300         50.060309300
WJ0724             10.282494000         50.046770100
WJ0725             10.282325300         50.046003000
WJ0726             10.181691500         50.063396700
WJ0727             10.182438200         50.063585700
WJ0728             10.256017600         50.037939300
WJ0729             10.246555500         50.036278300
WJ0730             10.244268600         50.037392200
WJ0731             10.208441200         50.031775100
WJ0732             10.210474700         50.032842000
WJ0733             10.256744000         50.038674700
WJ0734             10.229626000         50.046521600
WJ0735             10.230796100         50.070061100
WJ0736             10.231321000         50.069608600
WJ0737             10.232377900         50.036077000
WJ0738             10.289527800         50.059232700
WJ0739             10.193357200         50.042412200
WJ0740             10.193068700         50.040682300
WJ0741             10.230508300         50.056845000
WJ0742             10.228451200         50.067280700
WJ0743             10.227106300         50.067861200
WJ0744             10.267847100         50.025541000
WJ0745             10.202272100         50.034516800
WJ0746             10.224085400         50.066722800
WJ0747             10.225835000         50.066983300
WJ0748             10.223656300         50.067429500
WJ0749             10.237967900         50.041792200
WJ0750             10.237738200         50.042161100
WJ0751             10.237556800         50.041490600
WJ0752             10.231198000         50.036635400
WJ0753             10.231619400         50.035891400
WJ0754             10.232703300         50.066597500
WJ0755             10.232413500         50.065612400
WJ0756             10.233548900         50.067295700
WJ0757             10.233123300         50.039742300
WJ0758             10.265506700         50.055626500
WJ0759             10.263092900         50.054914700
WJ0760             10.189043400         50.060704300
WJ0761             10.187374700         50.060505300
WJ0762             10.222377400         50.072494800
WJ0763             10.225607100         50.067140600
WJ0764             10.222035600         50.073358500
WJ0765             10.221109200         50.072282400
WJ0766             10.214961700         50.058053600
WJ0767             10.215031900         50.058150800
WJ0768             10.212536400         50.072033800
WJ0769             10.211838800         50.071135800
WJ0770             10.231967000         50.086267000
WJ0771             10.165623800         50.072072900
WJ0772             10.256567300         50.039984200
WJ0773             10.255606200         50.039456800
WJ0774             10.257870800         50.040743700
WJ0775             10.252617500         50.040404100
WJ0776             10.233999600         50.068782900
WJ0777             10.244390400         50.038699300
WJ0778             10.238155700         50.038097000
WJ0779             10.171797300         50.053177600
WJ0780             10.260212300         50.053856400
WJ0781             10.255357100         50.051806400
WJ0782             10.226369300         50.043418300
WJ0783             10.227620600         50.042851900
WJ0784             10.225727600         50.044474800
WJ0785             10.177874300         50.064106800
WJ0786             10.180417200         50.063411500
WJ0787             10.216812300         50.065915200
WJ0788             10.215558600         50.065742200
WJ0789             10.193552300         50.057047900
WJ0790             10.219367800         50.069293100
WJ0791             10.219369200         50.069089700
WJ0792             10.218453800         50.069708200
WJ0793             10.219246400         50.070788500
WJ0794             10.259801500         50.043642500
WJ0795             10.258611300         50.043673800
WJ0796             10.165396500         50.073149300
WJ0797             10.164745200         50.072654100
WJ0798             10.212449700         50.048149800
WJ0799             10.213367700         50.048038400
WJ0800             10.208554500         50.048832300
WJ0801             10.215312300         50.032919200
WJ0802             10.214937000         50.032690400
WJ0803             10.219993500         50.024483400
WJ0804             10.222055500         50.026818400
WJ0805             10.219494800         50.023930100
WJ0806             10.182870500         50.066745300
WJ0807             10.184277000         50.066175200
WJ0808             10.182156700         50.066944400
WJ0809             10.182862100         50.066951200
WJ0810             10.237163600         50.037488800
WJ0811             10.236702100         50.037969100
WJ0812             10.231081800         50.060790100
WJ0813             10.229545100         50.056817800
WJ0814             10.252651600         50.073131000
WJ0815             10.253378000         50.074402700
WJ0816             10.251626300         50.066427600
WJ0817             10.249978400         50.064514500
WJ0818             10.251030000         50.067753800
WJ0819             10.254298500         50.059108600
WJ0820             10.208560200         50.093791700
WJ0821             10.207937700         50.093585600
WJ0822             10.291603300         50.043439900
WJ0823             10.289869000         50.042809900
WJ0824             10.199420300         50.024497700
WJ0825             10.199029600         50.026170300
WJ0826             10.208150400         50.037453800
WJ0827             10.209905100         50.036291500
WJ0828             10.235865000         50.043348300
WJ0829             10.234777800         50.043617000
WJ0830             10.272739600         50.057040500
WJ0831             10.213718800         50.045415700
WJ0832             10.215571100         50.045679500
WJ0833             10.229272900         50.041442200
WJ0834             10.229282700         50.041841200
WJ0835             10.213704100         50.053898100
WJ0836             10.261101200         50.063999400
WJ0837             10.237244500         50.050406700
WJ0838             10.235392800         50.050627600
WJ0839             10.238668500         50.018746300
WJ0840             10.218408800         50.077197100
WJ0841             10.219567200         50.075612900
WJ0842             10.186531900         50.059757900
WJ0843             10.186593400         50.059752900
WJ0844             10.182807400         50.060385500
WJ0845             10.256985200         50.054618200
WJ0846             10.224574000         50.044754900
WJ0847             10.249838600         50.063086100
WJ0848             10.247843200         50.061536200
WJ0849             10.246824400         50.064768700
WJ0850             10.204705600         50.041703400
WJ0851             10.203461600         50.041554800
WJ0852             10.281422900         50.018405100
WJ0853             10.280459500         50.017299700
WJ0854             10.212022300         50.055730100
WJ0855             10.209000500         50.056164700
WJ0856             10.211348700         50.055609300
WJ0857             10.200124100         50.027750200
WJ0858             10.200484500         50.027981400
WJ0859             10.199531200         50.027056100
WJ0860             10.199824200         50.028006100
WJ0861             10.194546400         50.028683700
WJ0862             10.220442300         50.049829200
WJ0863             10.206127300         50.049842400
WJ0864             10.296171000         50.053510000
WJ0865             10.228336000         50.060925900
WJ0866             10.229425500         50.060124900
WJ0867             10.179356100         50.064495800
WJ0868             10.181895700         50.064198600
WJ0869             10.231729900         50.046676000
WJ0870             10.231286800         50.047029800
WJ0871             10.232221400         50.052352600
WJ0872             10.222696300         50.041401200
WJ0873             10.220640300         50.041718300
WJ0874             10.218671800         50.040698300
WJ0875             10.221042600         50.041961300
WJ0876             10.220099500         50.050037400
WJ0877             10.250514800         50.060572700
WJ0878             10.250608800         50.060488700
WJ0879             10.248451300         50.049510400
WJ0880             10.218257100         50.055796900
WJ0881             10.220926200         50.056407300
WJ0882             10.202875600         50.035983200
WJ0883             10.203430400         50.035806600
WJ0884             10.203088200         50.036192500
WJ0885             10.191436300         50.066251000
WJ0886             10.189135400         50.066247900
WJ0887             10.167672400         50.054281600
WJ0888             10.234909500         50.065205800
WJ0889             10.234900800         50.062095100
WJ0890             10.235890000         50.064073700
WJ0891             10.214700500         50.008627200
WJ0892             10.198063400         50.061305100
WJ0893             10.197930900         50.059630200
WJ0894             10.197326900         50.062469000
WJ0895             10.198380900         50.061305100
WJ0896             10.251053600         50.065624900
WJ0897             10.220247200         50.056596400
WJ0898             10.216067800         50.056967500
WJ0899             10.249452700         50.070280100
WJ0900             10.247363800         50.065550500
WJ0901             10.213885200         50.036281900
WJ0902             10.162148300         50.072000300
WJ0903             10.161816400         50.071732200
WJ0904             10.213082800         50.049471600
WJ0905             10.216125500         50.049551100
WJ0906             10.261106800         50.024019400
WJ0907             10.262362300         50.021326200
WJ0908             10.260962700         50.023995600
WJ0909             10.245963000         50.058326700
WJ0910             10.246166300         50.057066900
WJ0911             10.246252300         50.060053400
WJ0912             10.206742400         50.056293200
WJ0913             10.208522500         50.056194000
WJ0914             10.205680800         50.055903000
WJ0915             10.287371100         50.057207300
WJ0916             10.214262200         50.031469300
WJ0917             10.261776500         50.036470200
WJ0918             10.263042700         50.036701100
WJ0919             10.255516200         50.075413300
WJ0920             10.237078700         50.036104000
WJ0921             10.237506700         50.034164100
WJ0922             10.237770500         50.036237300
WJ0923             10.215191600         50.049928900
WJ0924             10.200464400         50.045286500
WJ0925             10.251733600         50.037268400
WJ0926             10.251537300         50.037079100
WJ0927             10.221356900         50.026809300
WJ0928             10.223294800         50.060575600
WJ0929             10.224855000         50.059613900
WJ0930             10.228036500         50.057995900
WJ0931             10.228631200         50.056789900
WJ0932             10.226703800         50.058108000
WJ0933             10.263639500         50.025094800
WJ0934             10.248795300         50.034389700
WJ0935             10.248543200         50.034169100
WJ0936             10.249709000         50.035160000
WJ0937             10.248903800         50.034343300
WJ0938             10.214148100         50.056210100
WJ0939             10.215839700         50.055760700
WJ0940             10.243666700         50.047450100
WJ0941             10.222218400         50.049056100
WJ0942             10.203846200         50.040825700
WJ0943             10.235616800         50.061486900
WJ0944             10.223464300         50.044480600
WJ0945             10.223774100         50.044533300
WJ0946             10.229286600         50.034667500
WJ0947             10.225502700         50.048837000
WJ0948             10.225513000         50.048072500
WJ0949             10.244309600         50.054890900
WJ0950             10.285186000         50.023538100
WJ0951             10.249571400         50.066813900
WJ0952             10.258380600         50.043142500
WJ0953             10.258533500         50.042010800
WJ0954             10.258107600         50.043373800
WJ0955             10.195334600         50.046485000
WJ0956             10.174739200         50.052084000
WJ0957             10.231179700         50.061253700
WJ0958             10.239060100         50.027236100
WJ0959             10.237752600         50.032072800
WJ0960             10.252291800         50.032872900
WJ0961             10.218682100         50.035163700
WJ0962             10.253893900         50.069839300
WJ0963             10.255452800         50.069556900
WJ0964             10.253989800         50.070452800
WJ0965             10.251892800         50.069440400
WJ0966             10.184267700         50.065238600
WJ0967             10.240592000         50.051471300
WJ0968             10.186819400         50.063957400
WJ0969             10.281703900         50.045960000
WJ0970             10.198022600         50.054788600
WJ0971             10.195348200         50.054249100
WJ0972             10.228953100         50.045584600
WJ0973             10.222393100         50.063029900
WJ0974             10.229460800         50.057590200
WJ0975             10.217429500         50.058494600
WJ0976             10.195851800         50.056351200
WJ0977             10.197112300         50.057736700
WJ0978             10.195498800         50.056528900
WJ0979             10.246427800         50.060322800
WJ0980             10.246309400         50.061106100
WJ0981             10.229368000         50.060082500
WJ0982             10.227653200         50.059860400
WJ0983             10.229592900         50.059987300
WJ0984             10.197958700         50.039113800
WJ0985             10.278934800         50.023188000
WJ0986             10.226342100         50.058282300
WJ0987             10.240212700         50.062469900
WJ0988             10.243128200         50.063264800
WJ0989             10.201000100         50.036529700
WJ0990             10.236782000         50.043809200
WJ0991             10.235886900         50.045256100
WJ0992             10.186663700         50.060363200
WJ0993             10.184542900         50.060325900
WJ0994             10.190221100         50.059955200
WJ0995             10.240384400         50.055516700
WJ0996             10.262638600         50.036952600
WJ0997             10.217493400         50.049388100
WJ0998             10.202779500         50.072713300
WJ0999             10.202541900         50.073542000
WJ1000             10.270590900         50.022972000
WJ1001             10.199081300         50.059033300
WJ1002             10.200537800         50.058802300
WJ1003             10.199126400         50.058855500
WJ1004             10.220941900         50.064502900
WJ1005             10.219722100         50.065055000
WJ1006             10.241318300         50.040768200
WJ1007             10.227751100         50.063791400
WJ1008             10.228654400         50.063081700
WJ1009             10.243792800         50.056569800
WJ1010             10.242431100         50.060751400
WJ1011             10.226648000         50.027882400
WJ1012             10.258075900         50.040527300
WJ1013             10.216682600         50.057742000
WJ1014             10.218660800         50.057339800
WJ1015             10.214561700         50.011983300
WJ1016             10.215575700         50.008591600
WJ1017             10.250062300         50.030441300
WJ1018             10.229831200         50.031249100
WJ1019             10.229222800         50.030569300
WJ1020             10.231051900         50.030147600
WJ1021             10.276674500         50.021670700
WJ1022             10.277977000         50.024504200
WJ1023             10.204111500         50.035618800
WJ1024             10.201289700         50.030707200
WJ1025             10.244621000         50.066690000
WJ1026             10.245604800         50.057016500
WJ1027             10.237189300         50.030099200
WJ1028             10.238903300         50.032579900
WJ1029             10.246241300         50.004877400
WJ1030             10.225658800         50.063915200
WJ1031             10.244535200         50.050459900
WJ1032             10.243684300         50.084997600
WJ1033             10.243179900         50.056480800
WJ1034             10.212232100         50.031530800
WJ1035             10.204390800         50.031974700
WJ1036             10.193881100         50.066796900
WJ1037             10.216268800         50.063683900
WJ1038             10.252410200         50.061515800
WJ1039             10.218727100         50.062450200
WJ1040             10.198775800         50.037187000
WJ1041             10.217977500         50.068138200
WJ1042             10.219359000         50.068078000
WJ1043             10.222311100         50.042695600
WJ1044             10.218952800         50.042632100
WJ1045             10.221291500         50.072047300
WJ1046             10.244144900         50.012016800
WJ1047             10.271921000         50.023939500
WJ1048             10.274720000         50.022308600
WJ1049             10.181966500         50.065924700
WJ1050             10.183245800         50.065239200
WJ1051             10.224432800         50.041156400
WJ1052             10.228859000         50.044069100
WJ1053             10.204876000         50.037515500
WJ1054             10.212807300         50.037239900
WJ1055             10.214040500         50.057500700
WJ1056             10.211664000         50.056988300
WJ1057             10.249147600         50.054691100
WJ1058             10.247128500         50.052420100
WJ1059             10.227499000         50.049235700
WJ1060             10.226960100         50.047315700
WJ1061             10.242598800         50.048781400
WJ1062             10.239472800         50.050088300
WJ1063             10.240631200         50.048200200
WJ1064             10.236968100         50.089921400
WJ1065             10.236740300         50.034059100
WJ1066             10.252090200         50.036932400
WJ1067             10.194074800         50.039424800
WJ1068             10.201607500         50.027747600
WJ1069             10.196632300         50.041788400
WJ1070             10.197699500         50.041011700
WJ1071             10.194868500         50.042872100
WJ1072             10.223668600         50.058061100
WJ1073             10.262581600         50.019091500
WJ1074             10.231043100         50.061117900
WJ1075             10.231169500         50.061141100
WJ1076             10.229827700         50.061171000
WJ1077             10.277154800         50.024329600
WJ1078             10.214992000         50.047513100
WJ1079             10.289369800         50.060706400
WJ1080             10.251937100         50.051335600
WJ1081             10.217355800         50.062721200
WJ1082             10.240809400         50.032896300
WJ1083             10.186578700         50.059604000
WJ1084             10.258265200         50.032802400
WJ1085             10.256414100         50.034577100
WJ1086             10.220836400         50.052509700
WJ1087             10.222314600         50.052492700
WJ1088             10.220327400         50.053204100
WJ1089             10.176322800         50.042368900
WJ1090             10.192800900         50.045444400
WJ1091             10.225906600         50.042875700
WJ1092             10.251071100         50.067880000
WJ1093             10.222477300         50.056348800
WJ1094             10.198922000         50.049693700
WJ1095             10.180713800         50.063587600
WJ1096             10.221817900         50.070685500
WJ1097             10.222139600         50.069660300
WJ1098             10.198579300         50.046241700
WJ1099             10.200717000         50.047013500
WJ1100             10.196990600         50.046165600
WJ1101             10.205625400         50.019022700
WJ1102             10.206817400         50.020227200
WJ1103             10.203213000         50.017653500
WJ1104             10.216680400         50.064796700
WJ1105             10.216837100         50.064639400
WJ1106             10.253873700         50.034266200
WJ1107             10.251355400         50.034243500
WJ1108             10.204863900         50.028734100
WJ1109             10.202620600         50.029426200
WJ1110             10.221775200         50.056838100
WJ1111             10.215254600         50.066070600
WJ1112             10.237754300         50.051496000
WJ1113             10.219964400         50.060191900
WJ1114             10.221256400         50.058906600
WJ1115             10.208680500         50.028915400
WJ1116             10.209250800         50.029870000
WJ1117             10.207669000         50.028384700
WJ1118             10.208407000         50.029211700
WJ1119             10.260944600         50.023807700
WJ1120             10.257224900         50.036727300
WJ1121             10.257135400         50.036344000
WJ1122             10.269306600         50.025977600
WJ1123             10.214148900         50.033135400
WJ1124             10.213584400         50.032674800
WJ1125             10.251215100         50.031346900
WJ1126             10.240440200         50.047369900
WJ1127             10.263044100         50.040187900
WJ1128             10.280215100         50.026364700
WJ1129             10.223170500         50.067976200
WJ1130             10.221001400         50.040052100
WJ1131             10.224062800         50.041454400
WJ1132             10.235533400         50.023465100
WJ1133             10.256709300         50.034764800
WJ1134             10.235324300         50.046077100
WJ1135             10.159193600         50.069279100
WJ1136             10.211588400         50.089825000
WJ1137             10.214728900         50.086642700
WJ1138             10.247731300         50.061915700
WJ1139             10.200682800         50.030544300
WJ1140             10.200133500         50.029908700
WJ1141             10.198651800         50.030568100
WJ1142             10.215686300         50.085807300
WJ1143             10.217688100         50.083956700
WJ1144             10.214848000         50.086662200
WJ1145             10.193835600         50.059169600
WJ1146             10.191485600         50.057975500
WJ1147             10.245958000         50.038511800
WJ1148             10.194796400         50.052125000
WJ1149             10.194202500         50.052313300
WJ1150             10.257105300         50.070332100
WJ1151             10.257853800         50.071766700
WJ1152             10.167943500         50.063058800
WJ1153             10.242262000         50.056210300
WJ1154             10.251692400         50.053463200
WJ1155             10.256073300         50.064641300
WJ1156             10.253747000         50.065163100
WJ1157             10.255567700         50.064398400
WJ1158             10.257725200         50.064046500
WJ1159             10.258413800         50.038081300
WJ1160             10.186824900         50.065284400
WJ1161             10.185568200         50.065248200
WJ1162             10.186823400         50.065625000
WJ1163             10.224866800         50.045228900
WJ1164             10.204695500         50.027080800
WJ1165             10.233961500         50.045915700
WJ1166             10.242759800         50.004263500
WJ1167             10.263285000         50.036871200
WJ1168             10.215790400         50.034374100
WJ1169             10.232460100         50.044887200
WJ1170             10.229324500         50.081149000
WJ1171             10.228185400         50.056765300
WJ1172             10.195835400         50.026289700
WJ1173             10.205739900         50.039929900
WJ1174             10.206717300         50.039830900
WJ1175             10.259026900         50.068788400
WJ1176             10.193454100         50.022330400
WJ1177             10.264035500         50.062698900
WJ1178             10.240744200         50.043773500
WJ1179             10.218917400         50.054257400
WJ1180             10.224517900         50.031176100
WJ1181             10.275182000         50.025167000
WJ1182             10.275691000         50.024324600
WJ1183             10.276075900         50.025401400
WJ1184             10.175052400         50.063107900
WJ1185             10.174443500         50.063000700
WJ1186             10.280022000         50.020230600
WJ1187             10.226970400         50.046338200
WJ1188             10.206224400         50.038973900
WJ1189             10.218391000         50.059210500
WJ1190             10.166183500         50.058179300
WJ1191             10.168853100         50.058057200
WJ1192             10.221396800         50.074965400
WJ1193             10.220971400         50.075746400
WJ1194             10.198054400         50.030266100
WJ1195             10.204279600         50.019869100
WJ1196             10.205229600         50.020253600
WJ1197             10.202510400         50.042244600
WJ1198             10.235290900         50.054631600
WJ1199             10.236875500         50.051694200
WJ1200             10.260359800         50.042133500
WJ1201             10.259765200         50.041861700
WJ1202             10.260254900         50.042276300
WJ1203             10.197184100         50.060030000
WJ1204             10.281755700         50.046216800
WJ1205             10.213729900         50.036605900
WJ1206             10.261845900         50.026841000
WJ1207             10.216922500         50.041139400
WJ1208             10.239556000         50.056692800
WJ1209             10.228679200         50.029961400
WJ1210             10.228540900         50.030009800
WJ1211             10.163940300         50.072975700
WJ1212             10.194346900         50.039612100
WJ1213             10.229653100         50.062103900
WJ1214             10.216421300         50.050529300
WJ1215             10.216385900         50.050424500
WJ1216             10.215334500         50.068285500
WJ1217             10.206471800         50.060621500
WJ1218             10.289418400         50.042624600
WJ1219             10.223789500         50.028764800
WJ1220             10.227353800         50.050544800
WJ1221             10.196993900         50.048428900
WJ1222             10.210899700         50.070434800
WJ1223             10.274757300         50.023998600
WJ1224             10.197013000         50.031196100
WJ1225             10.209701900         50.036956500
WJ1226             10.193118900         50.061524400
WJ1227             10.214214100         50.036360800
WJ1228             10.206171100         50.029072400
WJ1229             10.250427600         50.057895500
WJ1230             10.208576600         50.038964000
WJ1231             10.205145500         50.047224800
WJ1232             10.168496000         50.061547200
WJ1233             10.225206400         50.044262800
WJ1234             10.187795700         50.062938700
WJ1235             10.212907800         50.045852500
WJ1236             10.212149400         50.045467100
WJ1237             10.268901400         50.043309200
WJ1238             10.223831100         50.073075500
WJ1239             10.259644100         50.042716600
WJ1240             10.264710300         50.037137100
WJ1241             10.226726900         50.046338900
WJ1242             10.272489600         50.023154400
WJ1243             10.289901100         50.042603800
WJ1244             10.224141400         50.054857400
WJ1245             10.192790700         50.045648500
WJ1246             10.200591100         50.025558100
WJ1247             10.228318400         50.029753500
WJ1248             10.172726600         50.063114100
WJ1249             10.210224800         50.045540200
WJ1250             10.192504500         50.023125800
WJ1251             10.197938700         50.041149800
WJ1252             10.230287000         50.024661400
WJ1253             10.209806500         50.058854300
WJ1254             10.211907400         50.058228000
WJ1255             10.213470400         50.018275000
WJ1256             10.231499000         50.035140000
WJ1257             10.184974600         50.019750900
WJ1258             10.189317800         50.017882200
WJ1259             10.212868600         50.052527600
WJ1260             10.252509300         50.031073800
WJ1261             10.221238600         50.060454700
WJ1262             10.204074700         50.039272700
WJ1263             10.194183300         50.050591600
WJ1264             10.276936100         50.044458600
WJ1265             10.229151600         50.062559900
WJ1266             10.197086300         50.021043500
WJ1267             10.232068300         50.042449500
WJ1268             10.284496600         50.056979300
WJ1269             10.172503200         50.056163500
WJ1270             10.213671200         50.032176600
WJ1271             10.228327100         50.048006300
WJ1272             10.199435500         50.041090000
WJ1273             10.276284500         50.048671800
WJ1274             10.193536900         50.040917900
WJ1275             10.283626900         50.022244600
WJ1276             10.258858200         50.041339500
WJ1277             10.243082500         50.050150700
WJ1278             10.223582100         50.061943700
WJ1279             10.206495300         50.028736900
WJ1280             10.208362800         50.027669300
WJ1281             10.283597200         50.026088400
WJ1282             10.238590300         50.055522700
WJ1283             10.187443900         50.066993900
WJ1284             10.186865300         50.066998600
WJ1285             10.262255700         50.043082900
WJ1286             10.200792900         50.046944900
WJ1287             10.228300200         50.050526400
WJ1288             10.257587100         50.043312300
WJ1289             10.201655900         50.027934500
WJ1290             10.209944500         50.030110400
WJ1291             10.210884800         50.029387600
WJ1292             10.219269100         50.051494000
WJ1293             10.228784100         50.063117700
WJ1294             10.225506400         50.068732800
WJ1295             10.224853900         50.070316400
WJ1296             10.187212800         50.059748600
WJ1297             10.258912400         50.045034700
WJ1298             10.212852100         50.047238200
WJ1299             10.252063900         50.035860200
WJ1300             10.228397200         50.062448600
WJ1301             10.286774100         50.024294000
WJ1302             10.288040300         50.024782200
WJ1303             10.232881500         50.059897000
WJ1304             10.199320100         50.028483700
WJ1305             10.283248900         50.028593600
WJ1306             10.213267500         50.075206100
WJ1307             10.218807700         50.082078000
WJ1308             10.244793300         50.054957900
WJ1309             10.202681200         50.037320800
WJ1310             10.200746100         50.059967700
WJ1311             10.236925600         50.057888300
WJ1312             10.192578200         50.062462900
WJ1313             10.212752800         50.070776000
WJ1314             10.207517600         50.046025300
WJ1315             10.204079300         50.014789600
WJ1316             10.168655000         50.057680000
WJ1317             10.197717100         50.042971200
WJ1318             10.201423800         50.050865400
WJ1319             10.231051200         50.061224900
WJ1320             10.199925800         50.035136700
WJ1321             10.187629000         50.017418000
WJ1322             10.255414400         50.038684500
WJ1323             10.189531900         50.017730200
WJ1324             10.251816400         50.071467500
WJ1325             10.210317500         50.046405500
WJ1326             10.235421700         50.036427600
WJ1327             10.190774100         50.016906300
WJ1328             10.190733400         50.015406900
WJ1329             10.278368000         50.025940400
WJ1330             10.186683000         50.061020700
WJ1331             10.197029800         50.057758300
WJ1332             10.280191900         50.025073700
WJ1333             10.242082900         50.058069000
WJ1334             10.240958400         50.035888700
WJ1335             10.221451700         50.079049200
WJ1336             10.258052000         50.041833400
WJ1337             10.193523400         50.061701900
WJ1338             10.171237000         50.063965300
WJ1339             10.198170700         50.055485200
WJ1340             10.198005900         50.056256900
WJ1341             10.185493800         50.066685700
WJ1342             10.190933700         50.018710900
WJ1343             10.168052900         50.063145600
WJ1344             10.239017600         50.076734500
WJ1345             10.216846500         50.011559300
WJ1346             10.238218400         50.031663300
WJ1347             10.236913600         50.021876300
WAT_RAW_SOURCE         10.241318300         50.040768200

[VERTICES]
;Link      X-Coord    Y-Coord   

[LABELS]

[BACKDROP]
UNITS    NONE

[END]
